 # Version information for this restart file 
 # current date 2024-11-26 21:57:47.627
 # current working dir /scratch/work/courses/CHEM-GA-2671-2024fa/students/hh2635/comp-lab-class-2024/Week12-IntroAIMD/runs_proton
 # Program compiled at                              Sat Dec 12 18:27:15 EST 2020
 # Program compiled on                                         cs001.nyu.cluster
 # Program compiled for                                                nyu-intel
 # Source code revision number                                       git:8c64c6e
 &GLOBAL
   PRINT_LEVEL  LOW
   PROJECT_NAME proton_aimd_1ns_every0.5fs
   RUN_TYPE  MD
   WALLTIME 21600
 &END GLOBAL
 &MOTION
   &GEO_OPT
     OPTIMIZER  BFGS
     MAX_ITER  100
     MAX_DR     3.0000000000000001E-03
     &BFGS
     &END BFGS
   &END GEO_OPT
   &MD
     ENSEMBLE  NVT
     STEPS  2000
     TIMESTEP     4.9999999999999994E-01
     STEP_START_VAL  1999
     TIME_START_VAL     9.9949999999998238E+02
     ECONS_START_VAL    -1.1027144142478624E+03
     TEMPERATURE     3.0000000000000000E+02
     &THERMOSTAT
       TYPE  GLE
       REGION  MASSIVE
       &GLE
         NDIM  5
         A_SCALE     1.0000000000000000E+00
         A_LIST     1.8595758612559999E+02    2.7263853498399998E-01    1.1526100454610001E+01   -3.6414578262600003E+01 \
             2.3173375816020001E+02
         A_LIST    -2.7809524712060002E-01    8.5951591808710006E-05    7.2189048017650004E-01   -1.9844539343859999E-01 \
             4.2409257583420001E-01
         A_LIST    -1.4825808131210000E+01   -7.2189048017650004E-01    1.3590902121280000E+00    5.1498896280349999E+00 \
            -9.9949268450990001E+00
         A_LIST    -1.0372189126880000E+01    1.9844539343859999E-01   -5.1498896280349999E+00    2.6661910891169999E+01 \
             1.1507715495310000E+01
         A_LIST     2.1801346360420001E+02   -4.2409257583420001E-01    9.9949268450990001E+00   -1.1507715495310000E+01 \
             3.0958394565589998E+02
         &THERMOSTAT_ENERGY
               7.4807470314895309E-03
              -2.0673558014151438E-03
              -1.4671460014037891E-03
               1.9976043110009069E-03
              -1.2237395744053744E-02
               6.0339931661016941E-04
              -1.2142571543799073E-03
              -1.9139462237976208E-03
               1.3873867091914037E-02
               4.8552599227213323E-03
               4.6851691691602382E-03
              -2.5100380362051331E-03
              -6.2303145365043781E-03
              -8.1825780443682029E-03
               6.3436169478001819E-03
              -1.1871916442949290E-02
               6.7197516321892805E-03
              -3.4059112405771755E-03
              -1.4968340010323915E-03
               4.8495654024500139E-04
               3.9037724892655165E-04
               5.0999514290726907E-03
              -1.1610948955999420E-02
              -1.5331408177375726E-03
               4.8697351321257297E-03
              -4.9776342420395983E-03
               2.5538782010217560E-03
               7.4767592679445601E-04
               5.6360190892838797E-03
               2.8170377848495565E-03
              -1.3154403853953577E-03
              -3.0272807069280211E-03
               4.7859318126880195E-03
               1.5060576006031580E-03
              -1.3205154265667741E-02
               1.2054223400545535E-02
              -1.8660178723821697E-03
              -3.6460753385533983E-03
               6.4484595357351443E-04
              -2.3743132975202340E-03
               5.1546768708613825E-03
              -1.3753622068885751E-02
               1.0085190361349848E-02
               5.3276604375185870E-03
               9.4368199795517903E-04
              -3.8805356976737652E-03
              -1.0545854600511401E-02
               8.1706222104549111E-03
              -6.8600945154536871E-04
               4.7271691869771428E-03
              -3.3361064496387023E-03
              -2.9591537367382376E-04
              -7.4480041657014144E-04
              -2.2519068381511367E-03
              -8.2050197600858476E-03
               7.3729906513069756E-03
              -3.4843567201849812E-03
              -3.3853125856011684E-03
               2.8098151951011321E-03
               5.1107214619058108E-03
              -6.7192940546748773E-03
               5.4475621143832793E-03
               1.5514495272108863E-02
              -6.3494118714709806E-03
               4.7217199430616454E-03
               3.9397635153366074E-03
              -6.5800403442208191E-03
               5.7650260514220571E-03
               8.2263679919351816E-03
              -1.2736729769042074E-02
              -4.0376775000049662E-03
              -1.5615906916258335E-03
              -3.2521427184019846E-03
              -2.6347384116277082E-03
              -2.6895758767555623E-04
              -1.1027581475971418E-02
               2.3157298221017919E-02
              -1.6620253007745198E-03
               6.3424851992767792E-03
              -6.1306421226433594E-03
              -2.0942029179839539E-03
              -9.4074296629232650E-03
               5.1728693670631282E-03
              -1.7484760090111062E-03
               7.0244661370213743E-03
               5.1607817619075741E-03
               7.2844161408023569E-04
              -1.2578379439535119E-02
               1.0562853576904322E-02
              -5.6735548267980943E-03
               9.6825566313659230E-04
              -6.9783888828697871E-03
               6.0757073811658017E-03
               2.7498034762485396E-03
              -1.5334990119807296E-02
               4.5863226274340980E-03
               1.4259656538748329E-03
               7.6444126616238557E-04
               2.7781187371721241E-03
              -1.9108757670782783E-03
               8.2584623661978388E-03
              -5.1575427507137492E-03
               6.5870375333809961E-03
               1.6364221226056231E-02
               1.1818814015039515E-02
               1.4489962932334531E-02
               9.5066468510703519E-03
               2.2289549635661907E-02
               4.1104239025840919E-03
              -7.3731433883033491E-03
               6.0994743643571726E-03
              -1.9528184643314533E-03
               6.9496318026341540E-03
               6.1218630162444560E-04
               3.2409055115237300E-04
              -3.2373329106556424E-03
              -9.6680684708784406E-03
              -2.4968129579032976E-03
               5.4321928232363790E-03
               1.7841835310121075E-03
              -3.9531393583993864E-04
              -1.8019030952638453E-03
               9.9174093184511806E-03
               1.4233623688002559E-02
              -1.0875593959133444E-02
              -1.6479482324306662E-02
               6.0431564978502003E-03
              -4.6745757353600630E-03
              -2.8614107313615880E-03
               3.5820997029129983E-03
              -3.3146679251648088E-03
               3.2625153510310819E-03
               5.3321555479255017E-03
               2.2116326789224003E-03
              -3.1362730972395246E-04
               3.9495917741882878E-03
               5.1014270438979568E-03
              -5.6088150785140621E-03
              -1.0418165498977701E-02
              -3.4195946153477222E-03
              -4.5682005099053329E-03
               4.2113976897936124E-03
               1.3570280419742023E-02
              -3.2048235468563084E-03
               1.3597647983945667E-03
              -9.4354808461417916E-03
               5.1053258102111872E-03
              -2.5803266903573650E-03
               8.9875538841686041E-04
               1.1690231906532806E-02
              -1.3734650728949027E-02
               5.0177698191179428E-03
               1.9162132996213832E-03
               2.8275127812365619E-03
               6.4291645307665204E-03
               4.3406403731247670E-03
              -7.0591294687645078E-04
               2.8682047364528315E-03
              -5.7512550874366207E-03
              -5.7053169340819598E-04
               2.2703357233074340E-03
               3.8525953193549282E-03
              -8.4769174169166319E-04
               7.7503112541712641E-03
               9.3704807282626867E-03
               2.6420868091295090E-02
               8.6090212854205619E-03
              -2.4452394150337182E-02
              -5.1527848914106574E-04
               2.8250527288274400E-03
              -4.1133992267879827E-03
               7.3079400171054808E-03
               1.6900004453343895E-03
               3.1092739739873822E-04
              -3.9220598250664634E-03
               1.8978124628096900E-02
              -1.2252100894522010E-02
               5.4807043467351227E-03
              -1.3707014685691757E-02
               9.1269079235042645E-03
               2.0498588021246851E-03
              -4.8487267233937115E-03
               1.4989567356033639E-03
              -9.7649878487305053E-03
               1.1546911206007407E-02
               6.8184042988422822E-04
              -1.4440483940811598E-02
               1.2346607643798813E-03
               1.8737547939693272E-03
               4.1662705141169210E-04
               4.2436703447452052E-03
              -3.0434408451453995E-03
              -4.3626745492593233E-03
               1.4481710786146558E-02
               2.0154629687509245E-03
              -3.0324460077490697E-04
              -1.0257525458047742E-02
               6.9560871730873410E-03
               5.3858997448249602E-04
              -1.4232160901595150E-03
              -1.3774669991715566E-03
              -6.8554361250299338E-03
               8.8279501403256497E-03
               3.8221064988600514E-03
              -5.2671309039163949E-03
               6.5540552461473877E-03
              -3.6951463205709394E-03
              -1.4931132260088698E-04
               5.1187132504345060E-04
              -8.6850082293558342E-04
               3.9228122638979299E-03
              -5.7698060204034582E-03
               1.4102941583952916E-02
               6.6267438915932600E-04
               4.7947059665899606E-03
               1.4119484727753635E-03
              -5.0990652213848669E-03
               6.3507335416781701E-03
              -5.5334958254008005E-04
              -5.2154275317787113E-03
               1.7616384114228691E-04
              -1.0509104821445958E-02
              -8.2989953884277570E-03
               8.2501256542428670E-03
               1.2803735823008875E-02
               8.8512244259229596E-03
              -1.6148402106392120E-03
               3.2825932084319864E-03
               1.2829169981412090E-02
              -1.4532706948720157E-02
              -4.2647968528889283E-03
               2.4055768526420880E-03
               2.3001465533696152E-03
              -2.6309196005603916E-03
               1.0024679062362956E-03
               4.6382108066541769E-03
               9.5770688107919149E-04
              -7.5941271126873152E-03
              -2.5179687758159226E-03
               4.8382612372419873E-03
               8.2331712898503304E-03
              -3.2046385102521635E-03
               8.6559894554948426E-03
              -1.7331071964316056E-03
               5.0076934737814400E-03
               4.0480579830915256E-03
               2.9590997770553634E-03
               6.8386062108939071E-03
              -3.8777853568090809E-03
              -2.8098148722074806E-03
               5.7182670320002913E-03
              -1.1846031627795147E-02
              -1.1910904644015653E-02
              -1.8027317046097298E-03
               7.8131429142916670E-03
              -1.5551535976736745E-03
               1.7791035580957366E-02
              -1.3223958930206477E-02
               1.0322634725640526E-02
              -2.1749536758524517E-02
               7.5859904564928912E-03
               1.1155489119605901E-02
               2.7241426840104471E-02
               9.7270525895673792E-03
               3.0086728717368945E-03
               1.0677543141092300E-02
               3.0904160061572044E-03
              -2.2794729437627006E-03
              -5.9705353365173981E-03
               8.1240041437147942E-03
              -1.1622075651792244E-02
              -5.7569560805727218E-03
               5.5100305226559775E-03
              -1.0368338388881298E-03
               6.7912180779391507E-03
              -2.7755497006144974E-03
              -1.3689591764674540E-02
               9.0786462110192673E-03
               6.3739043695463398E-04
               9.0921736731222422E-03
              -9.5333555380780356E-03
              -4.9818913863244945E-03
              -6.6118152398640089E-03
               1.4057676841975687E-03
               8.2892480106946768E-03
              -4.1751512285256569E-03
              -3.0467657207460116E-05
               3.1081173434226320E-03
              -1.0619569595974730E-02
              -6.1402826361130051E-04
               7.2396016120109827E-03
               2.6355019697525494E-04
              -4.2960672888662649E-03
              -5.9919300113560284E-03
               1.4504236907711753E-02
              -4.8176198321316973E-03
              -1.6136732710996408E-02
               1.1583769715504937E-02
               1.4626944420410529E-02
              -1.0195132719946926E-02
               1.0790698447408499E-02
              -4.0591147706308959E-03
               5.6444165612759079E-03
               1.5689620110691319E-02
               1.9815146087745466E-03
              -9.4911657250566269E-03
              -1.4963123965076540E-03
              -1.8383561084295639E-03
               1.0442598594966393E-02
               9.4788827981669588E-03
               8.7864360155957973E-04
              -1.9927806802814670E-03
               6.3684507212424042E-04
              -8.9313973542417516E-05
               2.4957787233037079E-03
              -1.9499864819473502E-04
              -3.2454669057216464E-03
              -5.6718976267079724E-03
              -1.3315856770870582E-02
              -9.3426406773049267E-03
               3.1654663382906299E-03
               3.9466724528959612E-03
               2.3664543542937949E-03
               9.5027655564913962E-03
              -7.5100342683649055E-03
               4.7844987955342954E-03
               1.0678587719991171E-02
               1.2588798818231981E-04
              -4.6106965210050818E-04
               2.0477799617563981E-03
              -7.2028966224285873E-03
               2.7310916852368314E-03
               5.4585321918182144E-03
              -7.3762447732211838E-03
               1.3828472710431066E-02
              -4.1733331627483213E-03
               3.8314701976163183E-03
              -2.6135202183157637E-03
               3.2787550784729850E-03
               7.2847294663615338E-03
              -1.1014503347271644E-02
               4.8531982995894040E-03
               1.0088452124392898E-02
              -8.8351691651963674E-03
              -3.8405655713268103E-03
               4.4152574391161815E-03
               1.8955073587852665E-03
              -8.8304516772259971E-03
               2.1316105774137974E-02
              -8.6670007280776099E-04
              -9.4996797159901704E-03
               4.1332564856830381E-03
              -1.2443487021615364E-02
               3.9196580403336422E-03
               2.6429340202647053E-03
              -2.8128907050398626E-03
               3.7737782386952326E-03
              -4.0205075644688124E-03
              -5.2446358638295826E-03
               6.5283798173333945E-03
               3.4479550526920668E-03
              -2.9273657812096442E-03
               1.5135397838986445E-02
              -5.0299048156157216E-03
              -3.6337059648572454E-03
               2.0226905655179573E-03
               3.3918169735617193E-03
               3.4207066910958406E-03
              -9.7500679530674456E-03
               7.2032130055257491E-03
              -5.8879227876121199E-03
               1.4664924920394840E-03
               1.3014538784997809E-03
              -1.7453686619518286E-03
               1.5551134068000209E-03
               5.3079326838313236E-03
              -2.1587673440994254E-03
              -1.5054308298550343E-02
              -4.7738604394085763E-04
               8.9165312941226604E-03
               7.1320069335081716E-03
               3.1499786888024616E-03
               1.5008483744169889E-03
               3.8767037829743590E-03
              -2.1947301848042618E-02
              -5.1292080773279887E-04
               7.3708161628001194E-03
              -2.3638846802130657E-03
               9.8701212039077977E-03
              -5.0417489956189072E-03
              -4.7918930705062651E-03
               5.0985471523359773E-03
               2.3095633679153203E-03
              -2.7595955301525752E-03
               1.3351432041013071E-02
              -1.9857682858755699E-03
              -2.1244153483156946E-03
              -1.0302967202367464E-02
               1.1643920548192190E-02
              -2.1472454824989595E-03
               1.6164197241799556E-03
               6.8034171781686777E-03
               4.0715884379569104E-03
              -1.0086133799035812E-02
              -4.1945165201296240E-03
              -4.0991216714906919E-03
               1.1743462230405810E-03
               5.7892868214397489E-03
               1.4051472136050532E-03
               2.2388599931390772E-03
               1.8012632327746038E-03
               3.1170436913519335E-03
              -2.6324344394026162E-03
               4.0756643635673348E-03
               4.4658704749099016E-03
               2.4826839990147904E-03
              -3.2302156318449599E-03
               1.8055058482488134E-03
               3.5011958953857984E-03
              -4.5212500899486398E-03
               1.1114152362790206E-02
               2.3668234370407141E-03
              -2.2773547691769900E-03
              -4.7836493440583218E-03
               2.0009387036679753E-02
              -1.0024595923818529E-02
              -4.6112935740429770E-03
              -4.6658427052664849E-03
               5.1209759774208693E-04
               2.5251249122193501E-03
              -7.7670445279930571E-03
              -1.2506794823907054E-02
              -2.1806109744251265E-02
               1.4694437429000918E-02
               1.4358176781405441E-02
               9.0681302238891496E-04
              -7.4933581052361769E-03
              -2.3397665127472909E-03
              -5.5662699146041242E-04
               9.3664725459017915E-03
              -4.2397158745037370E-04
              -6.9125724317660115E-03
              -2.4342849595783535E-03
               1.0239700937455475E-02
              -1.4203731545648778E-03
               4.2670352006405248E-03
               9.9748926272448155E-04
               9.7370602906648070E-03
               1.1525707062755925E-02
              -8.1387270873384005E-03
              -5.2021476145945088E-03
              -1.1134999436720798E-02
               5.4040899501148806E-04
               1.0220891088670602E-04
              -3.7507561152939813E-04
               4.4481436439234223E-03
              -2.1464593379587362E-02
              -1.0624842982522120E-02
               3.4935825330632110E-03
               1.9935686695667274E-03
               1.5721186039793968E-02
               8.8986962057702266E-03
              -2.3531717665740276E-03
               6.9702242607163501E-03
               4.0745495176160093E-03
               5.9620382078117318E-04
              -7.8495753014472605E-03
               2.2716486601601065E-03
               1.3148433950216719E-02
              -9.3795380001254133E-03
              -4.1737291820584197E-03
              -4.7489367594128274E-03
               1.3164845356781932E-02
              -1.2230833940743524E-03
              -5.3212676657702481E-03
               6.6170652838628075E-03
               5.3018219332280937E-03
               6.3625573905358003E-03
              -3.8238230800188857E-03
              -1.2646362109319334E-03
              -6.4788226644811814E-04
              -3.2786940096682761E-03
               1.0102615406834289E-02
               3.6231730028166349E-03
               2.1437143494754361E-03
              -2.9579164955109692E-03
              -2.6256049115076555E-03
              -1.7789664539397385E-03
               1.0930814517200417E-02
              -1.7333402395638083E-03
               6.2736705995014696E-03
               8.8288999596533649E-03
               5.5355342541162037E-03
               3.3547079348746922E-03
               5.1348335777794945E-03
              -1.0864301904026968E-02
               4.4360331226082888E-03
              -9.0850963922720692E-04
               1.6455009182076133E-03
               6.1304885644420807E-03
               1.3867227440989517E-03
               3.5061296041968499E-03
              -1.1891058275745311E-02
               1.5019506123682290E-02
              -1.8788293901474879E-03
              -9.2429036435677289E-03
              -3.5528831768234957E-03
              -1.8263969326001047E-03
               3.6016173607721111E-03
              -3.4931338287360618E-03
              -4.0505140407454589E-03
               6.3373164585826692E-03
              -7.9952526209354363E-04
              -4.9518529690696532E-03
               1.7047069923484425E-04
              -8.9794937627366931E-03
              -7.1917935819621496E-03
               1.8950731179670232E-03
              -4.4460468247232407E-04
               6.1579796405702714E-03
              -9.7684564971299934E-03
               2.1715270033782351E-03
               2.7444665784859597E-03
               1.1935553062142447E-03
              -2.8016033446228361E-04
               4.5820064443688978E-04
              -5.6882386773421337E-03
              -3.4371317172358332E-03
              -3.0072927267019711E-03
              -3.8214366693019542E-03
               1.6516528322527823E-02
               3.3587238068442986E-05
              -7.3933299836571372E-03
              -8.0173990000584044E-03
              -4.6000978263557207E-04
              -1.9505620603899600E-03
              -1.2572176928811241E-03
              -2.8938514832418782E-03
               2.9677475813944744E-03
              -8.7622631061348415E-03
               1.7938801500729737E-03
               4.8258092998211648E-03
              -8.1073935570258673E-03
              -5.2311655473333794E-03
               6.6857943520093619E-03
              -3.7544477611876526E-03
               5.8978630553787239E-03
              -1.1117546118142987E-02
               1.9181568525624610E-03
               1.6154689672874601E-03
              -4.0917850857044658E-03
               3.0472308592306629E-03
               4.2954808277834737E-03
              -2.9580389842641642E-03
               1.4862993422175403E-03
               2.3191581552725205E-03
              -3.9136101671670602E-03
               4.6799918708431837E-03
               7.3333116094889041E-03
               6.2053332560354276E-03
               1.1772390034409980E-03
               9.8671367314111854E-03
               1.8740164230788760E-03
              -4.7412193956914870E-03
              -7.8015578462883449E-04
               1.5465654518285587E-02
              -7.2473684012337404E-03
              -5.2649674104826501E-05
              -2.3597702456807836E-03
              -1.9712679789741661E-03
              -4.2093936411869825E-03
               7.1164000706233285E-04
              -4.5131470153801706E-03
              -7.3898247803419505E-03
               3.1996685891002032E-03
               6.8171674182604123E-03
               1.2995089890278491E-02
               1.5293511151997657E-03
              -9.4620536967664638E-03
         &END THERMOSTAT_ENERGY
         &RNG_INIT
Wiener process for Thermostat # 1        1 F T T  -1.3877964172148927E+00        3819968671.0        1923139303.0        2505174482.0        1129753110.0        1102497896.0        2318485114.0             12345.0             12345.0             12345.0             12345.0             12345.0             12345.0             12345.0             12345.0             12345.0             12345.0             12345.0             12345.0
Wiener process for Thermostat # 2        1 F T T   5.9690975612399577E-01        1863048650.0        1167059563.0        4156553466.0        2659491592.0        2500563110.0        2967422577.0        3692455944.0        1366884236.0        2968912127.0         335948734.0        4161675175.0         475798818.0        3692455944.0        1366884236.0        2968912127.0         335948734.0        4161675175.0         475798818.0
Wiener process for Thermostat # 3        1 F T T  -1.9577134425325560E-01        2029679022.0        1992813296.0        1475024831.0        3744841000.0        4231717232.0        1872789393.0        1015873554.0        1310354410.0        2249465273.0         994084013.0        2912484720.0        3876682925.0        1015873554.0        1310354410.0        2249465273.0         994084013.0        2912484720.0        3876682925.0
Wiener process for Thermostat # 4        1 F T T  -5.5423907268054418E-01         972191078.0        3239779000.0        2283144792.0        4029872124.0        2868550739.0         388907277.0        2338701263.0        1119171942.0        2570676563.0         317077452.0        3194180850.0         618832124.0        2338701263.0        1119171942.0        2570676563.0         317077452.0        3194180850.0         618832124.0
Wiener process for Thermostat # 5        1 F T T  -3.6874052824979625E-01         246061856.0        2033992607.0        4208640487.0        3425480013.0        1713937449.0        3033523858.0        1597262096.0        3906379055.0        3312112953.0        1016013135.0        4099474108.0         275305423.0        1597262096.0        3906379055.0        3312112953.0        1016013135.0        4099474108.0         275305423.0
Wiener process for Thermostat # 6        1 F T T   5.7875332706651861E-01        4268450248.0        1240555256.0        2123119467.0         299173953.0        2368881629.0        2698044585.0          97147054.0        3131372450.0         829345164.0        3691032523.0        3006063034.0        4259826321.0          97147054.0        3131372450.0         829345164.0        3691032523.0        3006063034.0        4259826321.0
Wiener process for Thermostat # 7        1 F T T  -1.8983145396195047E+00        4260312323.0         705196258.0         937296972.0        1373994383.0        3179698350.0        3757299263.0         796079799.0        2105258207.0         955365076.0        2923159030.0        4116632677.0        3067683584.0         796079799.0        2105258207.0         955365076.0        2923159030.0        4116632677.0        3067683584.0
Wiener process for Thermostat # 8        1 F T T  -3.3116685260855833E-01        2351531572.0        3477839446.0        1021048571.0        1975906828.0        1893564842.0         777663015.0        3281794178.0        2616230133.0        1457051261.0        2762791137.0        2480527362.0        2282316169.0        3281794178.0        2616230133.0        1457051261.0        2762791137.0        2480527362.0        2282316169.0
Wiener process for Thermostat # 9        1 F T T   1.4386427466100791E+00        3265425123.0        2999969280.0        3048908474.0        1047403656.0         134736569.0        4209884843.0        3777646647.0        1837464056.0        4204654757.0         664239048.0        4190510072.0        2959195122.0        3777646647.0        1837464056.0        4204654757.0         664239048.0        4190510072.0        2959195122.0
Wiener process for Thermostat # 10       1 F T T  -2.3947144259907721E-01        2825100143.0        2025717467.0        3827127036.0        1422979577.0        1026966836.0        1481957392.0        4215590817.0        3862461878.0        1087200967.0        1544910132.0         936383720.0        1611370123.0        4215590817.0        3862461878.0        1087200967.0        1544910132.0         936383720.0        1611370123.0
Wiener process for Thermostat # 11       1 F T T   2.8146058156813852E-01        3161233422.0        2404453347.0        1673723662.0         906337025.0          73303549.0        1016746719.0        1683636369.0         362165168.0         814316280.0         869382050.0         980203903.0        2062101717.0        1683636369.0         362165168.0         814316280.0         869382050.0         980203903.0        2062101717.0
Wiener process for Thermostat # 12       1 F T T  -6.6211933450441895E-01         208754144.0        1983222026.0        1378772639.0         460703296.0         651350573.0        3898252829.0         272317999.0         166758548.0         310112982.0         201045826.0        1680231254.0         118290799.0         272317999.0         166758548.0         310112982.0         201045826.0        1680231254.0         118290799.0
Wiener process for Thermostat # 13       1 F T T   2.2418582236869027E-02         545702192.0         878923556.0         464381839.0        1267067492.0        3004786620.0        2258194530.0        2245755202.0        1652682525.0        2865544364.0         721509566.0         209733568.0         592362218.0        2245755202.0        1652682525.0        2865544364.0         721509566.0         209733568.0         592362218.0