 # Version information for this restart file 
 # current date 2024-11-26 19:56:12.544
 # current working dir /scratch/work/courses/CHEM-GA-2671-2024fa/students/hh2635/comp-lab-class-2024/Week12-IntroAIMD/runs_proton
 # Program compiled at                              Sat Dec 12 18:27:15 EST 2020
 # Program compiled on                                         cs001.nyu.cluster
 # Program compiled for                                                nyu-intel
 # Source code revision number                                       git:8c64c6e
 &GLOBAL
   PRINT_LEVEL  LOW
   PROJECT_NAME proton_aimd_1ns_every0.5fs
   RUN_TYPE  MD
   WALLTIME 21600
 &END GLOBAL
 &MOTION
   &GEO_OPT
     OPTIMIZER  BFGS
     MAX_ITER  100
     MAX_DR     3.0000000000000001E-03
     &BFGS
     &END BFGS
   &END GEO_OPT
   &MD
     ENSEMBLE  NVT
     STEPS  2000
     TIMESTEP     4.9999999999999994E-01
     STEP_START_VAL  1000
     TIME_START_VAL     4.9999999999999636E+02
     ECONS_START_VAL    -1.1027144142478624E+03
     TEMPERATURE     3.0000000000000000E+02
     &THERMOSTAT
       TYPE  GLE
       REGION  MASSIVE
       &GLE
         NDIM  5
         A_SCALE     1.0000000000000000E+00
         A_LIST     1.8595758612559999E+02    2.7263853498399998E-01    1.1526100454610001E+01   -3.6414578262600003E+01 \
             2.3173375816020001E+02
         A_LIST    -2.7809524712060002E-01    8.5951591808710006E-05    7.2189048017650004E-01   -1.9844539343859999E-01 \
             4.2409257583420001E-01
         A_LIST    -1.4825808131210000E+01   -7.2189048017650004E-01    1.3590902121280000E+00    5.1498896280349999E+00 \
            -9.9949268450990001E+00
         A_LIST    -1.0372189126880000E+01    1.9844539343859999E-01   -5.1498896280349999E+00    2.6661910891169999E+01 \
             1.1507715495310000E+01
         A_LIST     2.1801346360420001E+02   -4.2409257583420001E-01    9.9949268450990001E+00   -1.1507715495310000E+01 \
             3.0958394565589998E+02
         &THERMOSTAT_ENERGY
               3.5430513059685185E-03
              -2.6626188660154961E-03
              -2.4511049282267901E-03
               3.1497622688747727E-03
              -9.9481352398837469E-03
              -8.2139385550548201E-04
               2.4257099415975771E-03
              -3.3830959312037474E-03
               4.9805561875673572E-03
               4.5332633825235008E-03
               6.4258002083354866E-03
              -4.7090403501092370E-03
              -5.1030878916633856E-03
              -4.6664009305012128E-03
               4.7839441031334714E-03
              -8.4490695912399095E-03
               5.0818664813319057E-03
              -3.1342318056604909E-03
               4.3814581368261402E-03
              -1.0930825330486727E-03
               1.8050639695424786E-03
               2.9709334493045790E-03
              -8.5921215781583106E-03
               1.3778993182494005E-03
              -2.0580234903291935E-03
              -4.7376304771366657E-03
               5.5334877320320540E-05
               7.2755261987933811E-03
               5.0260812671449407E-03
               3.1900856027935014E-03
              -4.5100091210558135E-03
              -1.8660514726837561E-04
               6.1115876336874748E-03
               2.2526997938353732E-03
              -1.5037951342242711E-02
               1.4264209125188731E-02
              -2.4714439709252567E-03
              -5.4193793230327856E-04
               1.4247884773742970E-03
              -9.5267829948223869E-03
               6.5436320417864863E-03
              -1.5378261568941248E-03
               5.1216235497358415E-03
               3.0606232146199422E-03
              -3.6046888630075187E-03
               5.6559006200230968E-04
              -4.4737274439806728E-03
               4.9487862777190250E-03
              -1.3928262575697910E-03
              -1.9609939595442299E-03
               2.1752769080988976E-03
              -5.9171672349815118E-03
              -4.1500248142237357E-03
               2.2761393570940652E-03
              -2.3179701717364054E-03
               3.2398620759314426E-03
              -1.0119808397481074E-03
               5.0156223256633999E-04
               2.6567409627995578E-03
               4.5755183004131082E-03
              -5.1277154560011220E-03
               2.3090980654529919E-03
               1.2680603380725665E-02
              -9.1692719765472798E-05
              -1.9013691731712338E-03
               4.9179882105094338E-04
              -3.7197960580459613E-03
              -1.1826788894695484E-04
               1.1490966100840256E-02
              -3.3305032590749933E-04
               6.4010139285001011E-03
              -5.9350589327482736E-03
              -6.0102102998219149E-03
               2.0676860152252970E-04
               3.0632057536806630E-04
              -6.7953793295491031E-03
               1.0753975926600561E-02
               4.6953966504562940E-03
               7.7388766738776069E-03
              -1.5911600514596901E-03
              -5.4889741141191653E-03
              -2.6816510028673606E-03
               1.9284043055048765E-03
              -1.9695204325568660E-03
               2.6419736342596575E-03
               3.5947966579606494E-03
               2.2626235073621853E-03
               4.2988174338773577E-04
               6.5474882383924678E-03
              -5.6283823196128600E-03
               2.9106205809240498E-03
              -4.0791515471791280E-03
               4.0120648072372589E-03
              -2.0948774602684494E-03
              -1.5046358992540627E-02
               9.1921971717634134E-03
               5.5786441824257236E-03
               2.1805714581198986E-04
               6.8408976380191968E-03
               2.3040548398328728E-03
              -7.7122876868546630E-04
              -3.9723868121558639E-03
              -1.3428920193250720E-03
               2.4957121881872633E-02
               6.7202083838870351E-03
               2.1030772269972249E-02
               8.7521865210233585E-03
               1.3330979861420436E-02
               3.6241188170942516E-03
              -4.9269676865350978E-03
               9.5002085158037348E-04
              -6.8077167315523986E-03
               4.4536225270390434E-03
               5.9518796186540076E-03
               4.1650110006044086E-03
              -1.6821070282341385E-03
              -1.0666938052473110E-02
               4.3620987235449375E-03
               2.5135361210723486E-03
              -1.0335778261398728E-03
              -1.4905117787286058E-03
               1.8382352111415328E-03
               3.5107079256493203E-03
               1.2372718479808455E-02
              -6.0184866148824921E-03
              -1.1237437957722425E-02
               2.9747743009278793E-03
              -4.5515476690873779E-03
               2.8067735660111779E-04
              -7.2665113953224916E-03
              -8.9663274506931335E-03
               8.8675813631918336E-03
               2.4742318291514631E-03
               5.1272773919107534E-03
              -2.1057995523079049E-03
               1.6343048554244644E-03
              -1.5254748704177580E-03
              -4.4742034988849355E-03
              -6.7866201675020302E-04
              -1.0373109407093239E-02
               6.6196650445731449E-03
               8.2962731270041813E-03
               5.4093845068501813E-03
              -8.2062307595520169E-03
              -2.8482333095375297E-03
               1.1973942060329904E-03
               7.0596776015495943E-03
              -3.7043754801771738E-03
               3.2570997634654118E-03
               7.2640069072970222E-03
              -5.7717019076960856E-03
               5.9487972487809067E-05
               6.0739250360149289E-03
               6.8696809372931894E-04
               3.1156326172986494E-04
               2.2554393563290194E-03
               1.8886170715040661E-03
              -7.6911915646715049E-03
              -1.5065474946808111E-03
               4.8175068427569901E-03
               1.7293962897372182E-03
              -7.7472627314978566E-04
              -1.6698383006813950E-03
              -1.7469863662434590E-03
               6.7132012548437670E-03
               1.2251158011885485E-02
              -2.2662211606891739E-03
              -5.4769313170548771E-03
              -6.2801086066400138E-03
               5.8339017684480151E-03
              -2.0323229744608770E-03
               8.0191498143760316E-03
              -1.9358433579547624E-03
              -3.1693040753472037E-03
              -2.0422279492879913E-03
               1.0923130412531866E-02
              -3.2085236648162342E-03
               5.3846212133005773E-04
              -9.5017156637826911E-03
               6.5784469569616349E-03
               2.6443442262132351E-03
              -2.4157478864539218E-03
               1.8822657862511746E-03
              -7.9811005899597821E-03
               5.1537401242866768E-03
              -7.0674113389042684E-07
              -7.7440624778132398E-03
               3.6403112177482515E-03
              -5.3603109275714083E-05
               1.9197232670088368E-03
               2.4204647060577880E-03
              -3.0233509988346419E-03
              -2.2214162678315412E-03
               5.5310698683553152E-03
               4.5339240859834460E-03
               1.5531979149508387E-03
              -6.7710864101102790E-03
               5.6590087901672763E-03
              -2.0692802532651326E-03
               7.6596142172408318E-04
               1.8528041165704694E-03
              -9.1141137457152761E-03
               1.0405793243149044E-02
               1.7409571734453052E-03
               1.3592336165133996E-03
               2.5612655393755673E-03
              -6.3253697740831664E-03
               3.7386788776994353E-03
               2.0039116606467289E-03
               4.7636042811506803E-04
               1.1002511108357384E-03
               2.8205134697515143E-03
               1.2785735503260858E-03
              -3.1135942934082577E-03
              -3.1200057156475290E-03
               4.7616611653048275E-03
              -1.3553823282388456E-03
               6.4931208204438290E-03
              -2.0262564800330863E-03
              -5.8130440985840557E-03
              -1.4738812761446178E-03
              -3.9427287359071377E-03
              -5.4067325083827439E-03
               7.5541689086833577E-03
               8.7735753630836834E-03
               1.4550658876989913E-03
               1.4571609967370712E-03
               7.7551338183101948E-03
               1.1433999967344814E-02
              -3.0597019334264895E-03
              -7.6217351438947027E-03
               9.8469032477114951E-04
               8.2308071569161395E-04
              -5.6805048832117100E-04
               3.6942221202376146E-03
              -2.6083850916282822E-04
              -1.8355169660554871E-03
              -1.7317184692467193E-03
              -1.4346549977354330E-03
              -8.9748030651954063E-04
               5.6567033747803742E-03
              -7.8686569225309630E-03
               7.9587275941122651E-03
               2.9536170083993515E-03
               2.3297536492221651E-03
               1.2288265019410438E-03
              -1.7984048157987642E-03
              -3.0652907805857011E-03
              -6.2986088122652891E-04
              -3.2795312638467769E-03
               5.1778759042093109E-03
              -2.6592977669064898E-03
              -1.0054227786980291E-02
              -3.0526582305070511E-03
               1.1519086794314226E-04
              -4.0456791866447578E-03
               1.4414999282549390E-02
              -5.5015409445745445E-03
               2.2414546302043439E-03
              -1.4124867501015591E-02
               8.5927424237952025E-03
               1.0159039992002602E-02
               3.5099066653949677E-02
               7.0853219102007840E-03
               3.1080805302030386E-03
               5.2378998841322785E-03
               5.6258584482505435E-03
              -4.8759965654826352E-03
              -7.1896120027729353E-03
               8.2250485852993355E-03
               4.3306824576805373E-03
              -7.4428970294492681E-03
               2.7724821845652504E-03
              -2.0050598267679857E-03
               1.5726664042515388E-03
               2.0693221182457693E-04
              -9.2929450174649916E-03
               8.4606356937145816E-03
               1.7384818023384577E-03
               3.8945508101712162E-03
               5.9093513352079089E-04
              -8.1684455738790795E-03
               2.1160560567358225E-03
              -1.6062211067179653E-03
               8.3326588730656976E-03
               7.9261719464304419E-03
              -5.7966086925998299E-03
               1.2379102922225156E-03
              -1.3029576104704970E-02
               5.5685715884863816E-03
               4.2723116324437814E-03
               1.0841266457306846E-03
               1.5136206103002286E-03
               3.6447385534663416E-03
               2.5952354672184345E-03
               1.3858862239807762E-03
              -5.0395591442617118E-03
               4.7344668205451679E-03
               5.1500580422851501E-03
              -5.7157625120589422E-03
               6.4073680089631708E-04
               8.1414876134745004E-04
               3.9733923597019046E-03
               1.0273004151565712E-02
              -3.2450203201523590E-04
              -5.0635466162125865E-03
               6.9306823580580644E-04
              -1.0880265576893621E-02
               4.6856297531915224E-03
               8.7494557308545485E-03
              -1.6171723785077111E-05
              -2.8843193635964292E-03
              -1.9264583525819413E-03
               2.6246442112995826E-03
               1.1218155048578309E-04
              -4.2910792724500310E-03
              -8.4774957301225438E-03
               1.9514231416574127E-03
              -5.4739602751777520E-03
              -4.0389434183442400E-03
               3.7903835217392482E-03
               3.0089945099647040E-04
               5.4970844106786234E-04
               2.6131770673565669E-03
              -2.6809622148474877E-03
               1.8726863947078299E-03
               7.9869347240341896E-03
               5.9641281886909292E-04
               1.0244549611690590E-03
              -9.3831010434840452E-04
              -5.0948804201158800E-03
               7.4534184303996591E-04
               5.7241476021168960E-03
               1.2477732516516106E-03
              -3.7543510692901656E-03
               3.0061098261662629E-03
               5.8150442031146355E-03
              -3.2120340393465684E-03
              -3.8019200256644278E-04
               6.2868036312492773E-03
              -9.2639557486176201E-03
               1.3792278038469638E-03
               7.9873302628496647E-03
              -1.1625534337446660E-03
               2.2724352619474006E-03
               4.9645911974963534E-03
               2.6526358565453611E-04
              -5.8464781423772320E-03
               5.9166669702644141E-03
              -2.5010954373380764E-03
              -6.3932966812578571E-04
              -2.3373180706587125E-03
              -9.1446715157410766E-03
               4.1678392640573684E-03
               2.0557605806003948E-03
              -3.0809725870012887E-03
              -1.2414655136629599E-04
               4.7651277962824957E-03
              -4.7001283046675243E-03
              -1.1141351360689263E-03
              -2.2750713470064067E-03
               4.8404114481745307E-03
               3.9795156565543355E-03
              -1.3289323429120034E-03
              -1.4210419399613493E-03
               4.5705394795775550E-03
               9.2950881807137530E-03
               6.8470657238873271E-03
              -1.2990363370933396E-02
               2.9311883979209548E-03
              -3.5767602428837795E-03
              -1.6866973565144538E-03
               4.1934211924763852E-04
              -1.1948252897668768E-03
              -1.0758607803523072E-03
              -4.2378948089547117E-04
              -4.6261168857528855E-03
              -5.1444326963271374E-03
              -7.0953014385511728E-03
               9.0203656241587930E-03
               3.4648642634947970E-03
              -1.1125110244369879E-03
              -5.0753476918711290E-04
              -1.0678685300077051E-03
              -1.4799785729232651E-02
               2.1582763696138606E-03
               2.6130133355818244E-03
               3.2237037777829301E-03
              -3.0315335126957200E-03
               3.3601880553104737E-03
              -3.1243918351407354E-03
               3.1271706289278931E-03
              -9.8740287947779860E-04
              -4.9171603381475189E-03
               2.9329817751531095E-03
               1.0413014526072472E-03
              -5.4381140585152725E-03
              -6.4234627472385599E-04
               5.6770336705359373E-03
              -4.0003774743665871E-03
              -4.9011909752425518E-04
               1.3609687947688438E-03
              -4.7878123037635402E-04
               3.0172708224681071E-04
              -7.2184751426223866E-04
               7.1569476474213616E-03
               1.8236691380100300E-03
              -5.5961436350365837E-03
              -1.3505485351021141E-03
               4.5541815230279430E-03
               2.6611679143384252E-03
               2.0492591096513894E-03
              -2.2825789821986383E-03
              -5.4311847466195417E-03
               2.0146777355017432E-03
              -3.3677546384386099E-04
              -7.6589197749261538E-04
               6.0430637399262223E-04
               2.4717087084701037E-03
               2.6612046858507728E-03
               4.9673337046876173E-03
               2.3196089041364605E-04
              -5.8862714139298732E-03
              -1.8938335996144197E-03
               9.8862501406805827E-03
              -1.7243604812100886E-03
               3.4841510142596876E-03
              -5.9104958174104813E-03
               3.6152862981250400E-03
               7.1759327487080629E-03
              -5.7469781619618769E-03
              -6.7194263271326991E-03
              -1.5369672587372112E-02
               5.6843814485519686E-03
               1.1985485955456295E-02
               1.1435568961184117E-03
              -2.8169086348729097E-04
              -3.0927865966632858E-03
              -2.2877466666165053E-03
               4.1289886886847040E-03
               2.3859536273088747E-03
              -1.1729781120952960E-03
               2.0712226936729743E-03
               3.1295842856454608E-03
              -4.0240533169088755E-03
               6.7794514222075932E-03
               6.9045364088834108E-03
               7.6450142566685253E-03
               2.9519475364288847E-04
              -7.4278476547138495E-03
              -6.4493655615555938E-05
              -5.9691704184298700E-03
               1.0354828813521075E-03
              -2.2808787053968911E-03
              -1.5969644388571114E-03
              -1.1809149907445636E-03
              -4.5611526571983701E-03
               1.1842720534039333E-03
              -5.5171038493039316E-03
              -2.9134035612200028E-04
               4.9260229067858083E-03
               5.8766528413848329E-03
               1.0369803971895300E-04
               4.5435857429141618E-03
               6.9991726118858750E-03
               3.1833548578194164E-03
              -3.9524315650554323E-03
              -6.7577051037045156E-03
               1.1222421465575090E-03
               1.7304400270387787E-03
              -1.0275484649092413E-04
               1.1042646859240417E-03
               7.1103852996592370E-03
              -2.4990508166502093E-03
               1.5400268855064953E-03
               5.1868989731906033E-03
              -9.2851842855211527E-04
               2.2645485003920684E-03
              -1.6531133856680586E-03
               1.3183350728341752E-03
               6.4538472814091078E-04
              -3.5446123916790854E-03
               6.7093212779829482E-03
               4.1285260951669086E-03
               1.8525850965329187E-03
              -4.4714529286152147E-04
              -3.9253035428102609E-03
              -2.0370588570858719E-03
               3.6393125041511458E-03
              -1.1830466778099951E-03
               2.8863449467610093E-03
               8.5311588537418468E-03
               2.4419000084839122E-03
              -1.0567656098292282E-03
               5.6497076717515566E-03
              -2.2840504560096881E-03
               3.7774737667642206E-03
               5.0269707858112433E-04
               4.9435547920229587E-03
               2.2149013709034169E-03
              -1.7421298485865825E-03
               1.5611310953117460E-03
              -1.3970812575828929E-02
               2.0985367847908196E-02
              -3.3483499720995272E-03
              -4.6351221687820649E-03
              -5.5194738741876238E-03
               4.6107505001651212E-04
               2.1760954010179617E-03
              -1.1130939649491567E-03
               3.2874453538474903E-03
               2.7299640421110721E-03
              -4.8508269841669735E-03
              -7.3640357583867298E-03
               6.3215136239167281E-03
              -4.3919961919558683E-03
              -7.5626811866333953E-03
               3.2663009855714163E-03
               2.2494793817638826E-03
               1.8736065431980632E-03
              -1.0776689032420147E-02
               2.8761861697446248E-03
              -3.6656227977538658E-04
              -2.6885654516526627E-03
               2.3855430807776042E-03
              -7.1441149704468902E-04
              -1.9866672181524793E-03
               1.3468659373238301E-03
              -4.8462943589074091E-03
               1.3916645836703223E-03
               6.2932062732550080E-03
               1.3407916808537022E-03
              -3.3685987346667333E-03
              -2.4657773816888886E-03
               2.7164721104784616E-03
              -1.8595668142119743E-03
               1.2005781414579099E-03
              -3.0117087089993615E-03
               5.1595613886132221E-04
               7.5054615124811866E-03
              -1.4387849997782062E-03
               5.5757929379434453E-04
              -7.8052180791784772E-03
              -1.0271487470460341E-03
               5.7913323265854312E-03
              -4.2280094087311654E-04
               4.7881621124259309E-03
              -2.4574064922018540E-03
               3.9108376811581233E-03
              -1.6503067730575668E-03
              -3.8074265909886097E-03
               5.6666924672211301E-04
              -2.1459347485354457E-04
              -3.0122555407274395E-03
               1.0624281672120513E-03
              -1.5730039124054328E-03
              -3.9117261526091952E-03
              -3.0350773509702105E-03
               8.0176709421085623E-03
               4.3398780148403279E-03
               5.8669395247105179E-03
              -1.4075120400630783E-04
              -1.3353107240496513E-03
              -1.5657588830295124E-03
              -4.3882701939423341E-03
               9.4332165896698714E-03
              -9.5022961605026757E-03
              -1.6160399410173427E-05
               3.0923876593392835E-03
              -7.5175575439486374E-04
              -3.3902820428906988E-04
              -4.3621892018650531E-03
              -3.6702593196126414E-03
              -1.0875945078059746E-02
               2.7480717998539447E-03
               2.4060251089168799E-03
               9.7593284027052661E-03
               4.4143978443162571E-03
              -6.5595130923769146E-03
         &END THERMOSTAT_ENERGY
         &RNG_INIT
Wiener process for Thermostat # 1        1 F T T  -9.8236738167888460E-01         226733040.0        4248387519.0        1164353849.0        2758509449.0        3644127687.0        1764793484.0             12345.0             12345.0             12345.0             12345.0             12345.0             12345.0             12345.0             12345.0             12345.0             12345.0             12345.0             12345.0
Wiener process for Thermostat # 2        1 F T T  -1.4171306107827426E+00        1528154308.0        2775625301.0         197130159.0        1452211673.0        1835562137.0        1983376171.0        3692455944.0        1366884236.0        2968912127.0         335948734.0        4161675175.0         475798818.0        3692455944.0        1366884236.0        2968912127.0         335948734.0        4161675175.0         475798818.0
Wiener process for Thermostat # 3        1 F T T   8.6049543281786645E-01        2248570378.0        1724762616.0          52903713.0        3229622658.0        3199004837.0        4241126217.0        1015873554.0        1310354410.0        2249465273.0         994084013.0        2912484720.0        3876682925.0        1015873554.0        1310354410.0        2249465273.0         994084013.0        2912484720.0        3876682925.0
Wiener process for Thermostat # 4        1 F T T  -1.5460863137690717E+00         957380376.0         510326667.0        2247033635.0        2033071685.0        3054261466.0        3462352516.0        2338701263.0        1119171942.0        2570676563.0         317077452.0        3194180850.0         618832124.0        2338701263.0        1119171942.0        2570676563.0         317077452.0        3194180850.0         618832124.0
Wiener process for Thermostat # 5        1 F T T   1.5428690481661575E-01        4203301200.0         738999836.0        1485820986.0          20648636.0        2223680357.0        4294941489.0        1597262096.0        3906379055.0        3312112953.0        1016013135.0        4099474108.0         275305423.0        1597262096.0        3906379055.0        3312112953.0        1016013135.0        4099474108.0         275305423.0
Wiener process for Thermostat # 6        1 F T T   7.0411917217518150E-01        1265311014.0        3687607523.0        1792102642.0         142025920.0         459804801.0        1211121065.0          97147054.0        3131372450.0         829345164.0        3691032523.0        3006063034.0        4259826321.0          97147054.0        3131372450.0         829345164.0        3691032523.0        3006063034.0        4259826321.0
Wiener process for Thermostat # 7        1 F T T  -9.5744195640119531E-02        4040223344.0        4246262317.0         329086624.0          28777921.0        2946509694.0        1489700490.0         796079799.0        2105258207.0         955365076.0        2923159030.0        4116632677.0        3067683584.0         796079799.0        2105258207.0         955365076.0        2923159030.0        4116632677.0        3067683584.0
Wiener process for Thermostat # 8        1 F T T  -1.2413826789147817E-01         252045112.0        2848200345.0         154646410.0        1271924195.0        1873079261.0        3351978939.0        3281794178.0        2616230133.0        1457051261.0        2762791137.0        2480527362.0        2282316169.0        3281794178.0        2616230133.0        1457051261.0        2762791137.0        2480527362.0        2282316169.0
Wiener process for Thermostat # 9        1 F T T   1.0331244080464512E+00        3784506675.0        1914172684.0        3527875272.0        1610827989.0        3855196701.0        1117597481.0        3777646647.0        1837464056.0        4204654757.0         664239048.0        4190510072.0        2959195122.0        3777646647.0        1837464056.0        4204654757.0         664239048.0        4190510072.0        2959195122.0
Wiener process for Thermostat # 10       1 F T T   2.1466585360569199E-01        3057685686.0        2869029583.0         411221469.0        2821893460.0         322924656.0        1143227575.0        4215590817.0        3862461878.0        1087200967.0        1544910132.0         936383720.0        1611370123.0        4215590817.0        3862461878.0        1087200967.0        1544910132.0         936383720.0        1611370123.0
Wiener process for Thermostat # 11       1 F T T  -4.4132046785776799E-02        1554543736.0        2717576499.0        4135075403.0        2618383353.0         642871762.0         249586537.0        1683636369.0         362165168.0         814316280.0         869382050.0         980203903.0        2062101717.0        1683636369.0         362165168.0         814316280.0         869382050.0         980203903.0        2062101717.0
Wiener process for Thermostat # 12       1 F T T  -5.6161533877704317E-01        1770324141.0        3770017049.0         190859559.0         764828178.0        2918138424.0         736540625.0         272317999.0         166758548.0         310112982.0         201045826.0        1680231254.0         118290799.0         272317999.0         166758548.0         310112982.0         201045826.0        1680231254.0         118290799.0
Wiener process for Thermostat # 13       1 F T T   9.7554409384929153E-01        3627045108.0        1898589428.0        2752141753.0          85759421.0        2499273175.0        1137986601.0        2245755202.0        1652682525.0        2865544364.0         721509566.0         209733568.0         592362218.0        2245755202.0        1652682525.0        2865544364.0         721509566.0         209733568.0         592362218.0