 # Version information for this restart file 
 # current date 2024-11-26 21:57:34.307
 # current working dir /scratch/work/courses/CHEM-GA-2671-2024fa/students/hh2635/comp-lab-class-2024/Week12-IntroAIMD/runs_proton
 # Program compiled at                              Sat Dec 12 18:27:15 EST 2020
 # Program compiled on                                         cs001.nyu.cluster
 # Program compiled for                                                nyu-intel
 # Source code revision number                                       git:8c64c6e
 &GLOBAL
   PRINT_LEVEL  LOW
   PROJECT_NAME proton_aimd_1ns_every0.5fs
   RUN_TYPE  MD
   WALLTIME 21600
 &END GLOBAL
 &MOTION
   &GEO_OPT
     OPTIMIZER  BFGS
     MAX_ITER  100
     MAX_DR     3.0000000000000001E-03
     &BFGS
     &END BFGS
   &END GEO_OPT
   &MD
     ENSEMBLE  NVT
     STEPS  2000
     TIMESTEP     4.9999999999999994E-01
     STEP_START_VAL  1997
     TIME_START_VAL     9.9849999999998249E+02
     ECONS_START_VAL    -1.1027144142478624E+03
     TEMPERATURE     3.0000000000000000E+02
     &THERMOSTAT
       TYPE  GLE
       REGION  MASSIVE
       &GLE
         NDIM  5
         A_SCALE     1.0000000000000000E+00
         A_LIST     1.8595758612559999E+02    2.7263853498399998E-01    1.1526100454610001E+01   -3.6414578262600003E+01 \
             2.3173375816020001E+02
         A_LIST    -2.7809524712060002E-01    8.5951591808710006E-05    7.2189048017650004E-01   -1.9844539343859999E-01 \
             4.2409257583420001E-01
         A_LIST    -1.4825808131210000E+01   -7.2189048017650004E-01    1.3590902121280000E+00    5.1498896280349999E+00 \
            -9.9949268450990001E+00
         A_LIST    -1.0372189126880000E+01    1.9844539343859999E-01   -5.1498896280349999E+00    2.6661910891169999E+01 \
             1.1507715495310000E+01
         A_LIST     2.1801346360420001E+02   -4.2409257583420001E-01    9.9949268450990001E+00   -1.1507715495310000E+01 \
             3.0958394565589998E+02
         &THERMOSTAT_ENERGY
               7.5875844779472908E-03
              -2.0110703155534525E-03
              -1.5178081946867275E-03
               1.8180177656337464E-03
              -1.2102354500546364E-02
               4.3490758983672000E-04
              -1.4114742633056926E-03
              -1.7052030162424811E-03
               1.3851249970549682E-02
               4.5713589189723628E-03
               4.6251277520394131E-03
              -2.5689651159266345E-03
              -5.7283559415544525E-03
              -8.1684730833708925E-03
               6.1654012569745875E-03
              -1.2224502677248061E-02
               7.0397529096191932E-03
              -4.7695447785022146E-03
              -9.6054568258576410E-04
               6.3512949139644438E-04
               3.9183580008361459E-04
               5.1243272969524779E-03
              -1.1360342464013642E-02
              -1.7643448875758910E-03
               5.1491763884641030E-03
              -4.2215676047266358E-03
               2.5054427161182342E-03
               7.3036947373554626E-04
               5.9891554101544498E-03
               2.8346186959299201E-03
              -1.6689942324373888E-03
              -2.8310224044876485E-03
               4.7966058695626153E-03
               1.1361143461455715E-03
              -1.3245528437547432E-02
               1.2850295675788477E-02
              -1.7176176284610821E-03
              -4.1910581691075519E-03
               6.0790568860501811E-04
              -2.3552673171242352E-03
               4.7816517810247176E-03
              -1.2524961756822151E-02
               1.1914966776489245E-02
               4.8812231114017442E-03
               9.4919472485072967E-04
              -1.3233054867224194E-03
              -1.0318562794016268E-02
               9.4186586638892872E-03
              -7.0512768267123492E-04
               2.6868752373438486E-03
              -4.6027158029133541E-03
              -3.0330737005066221E-04
              -6.8564052898935856E-04
              -2.2633924871233659E-03
              -8.4219659138158442E-03
               7.3955321882467643E-03
              -3.5040844705976544E-03
              -3.5516393315876489E-03
               2.0375189143160681E-03
               5.1412003631166317E-03
              -6.8673896271169710E-03
               6.2635346248975368E-03
               1.5098178427289955E-02
              -6.2709317932126288E-03
               4.8970975250740741E-03
               4.1745753083343579E-03
              -6.8856061611852187E-03
               5.1400329527262010E-03
               8.2732382879073651E-03
              -1.3054500423947775E-02
              -4.0335543341983200E-03
              -1.4973642596045832E-03
              -3.3474368961076998E-03
              -3.1140546464939267E-03
              -1.3206967607479013E-04
              -1.1385268802285683E-02
               2.2881535846155418E-02
              -1.4792437739964289E-03
               6.1372263911021827E-03
              -6.1744718814174728E-03
              -3.0002395247483759E-03
              -9.2102665916093517E-03
               5.3103932654827921E-03
              -1.6868873520210137E-03
               7.1636930707367000E-03
               4.5783288127301319E-03
               7.3257584483319327E-04
              -1.3201632379395136E-02
               1.0432651354619356E-02
              -5.3002196527061089E-03
               9.0375570898422399E-04
              -6.7603475477564547E-03
               6.3184577462080428E-03
               2.7785394973378771E-03
              -1.5519992835180864E-02
               4.7042130386903483E-03
               8.6849045410782868E-04
               8.4565093322603755E-04
               3.0263655410648119E-03
              -1.8165924808879780E-03
               8.4097870480229209E-03
              -4.9412305615254663E-03
               6.7038439003051708E-03
               1.6591962534509241E-02
               1.1964348576970719E-02
               1.4283683508917833E-02
               9.3492386708307913E-03
               2.2264192122329822E-02
               4.1179302924713498E-03
              -7.4808848393110080E-03
               5.6370476845826970E-03
              -1.5941075735843040E-03
               6.9165292032855102E-03
               1.0225450189441339E-03
               5.0789695087236878E-04
              -3.2312609866738565E-03
              -1.0077158006501429E-02
              -2.4900149840679092E-03
               5.1539629737878409E-03
               2.3998860827847833E-03
              -5.2881433505448845E-04
              -1.2609426178309944E-03
               9.6898806638800201E-03
               1.4261192664868551E-02
              -1.0972710002671622E-02
              -1.6412614890673725E-02
               6.0956119934368405E-03
              -4.7058911754663275E-03
              -2.6407436402761768E-03
               3.5149557763485568E-03
              -2.9813246685208620E-03
               3.4869836299565621E-03
               5.6208536635627259E-03
               1.7210687849620273E-03
               1.8789544789008124E-04
               2.8990177461309481E-03
               4.6534689113159888E-03
              -5.8834881721816501E-03
              -1.0638085417868126E-02
              -3.0930950182908295E-03
              -4.5499624923311189E-03
               5.2055051204945883E-03
               1.3976497699582955E-02
              -3.1873925427599883E-03
               1.1525325671704648E-03
              -9.1550887793657616E-03
               5.1125027846205678E-03
              -2.5965734719747948E-03
               6.3402261706221679E-04
               1.1139933412901480E-02
              -1.3308022375608285E-02
               4.8734862368540188E-03
               3.8221637628683611E-04
               2.9967093897216371E-03
               6.2940927979578884E-03
               3.5436348429752568E-03
              -1.1906570484606987E-03
               2.1254412715706770E-03
              -5.9840123012286431E-03
              -2.8210789833069447E-04
               2.1443218346225102E-03
               3.8873492395111219E-03
              -3.5878348872886006E-04
               7.4698037864164421E-03
               8.8423073079031723E-03
               2.5601519031263665E-02
               8.6806963890602145E-03
              -2.3955986840365616E-02
              -2.5630098703653573E-04
               2.6942307379185623E-03
              -5.4418958563708045E-03
               7.1991061826807996E-03
               1.8608652915141101E-03
               2.8177548759599034E-04
              -4.2943716191960260E-03
               1.8293548164147480E-02
              -1.2840521938990861E-02
               5.1139140872473628E-03
              -1.3584748588735996E-02
               9.3265061964088077E-03
               1.5606402884390206E-03
              -5.1565247992594295E-03
               1.4226170241458331E-03
              -1.1336872740057062E-02
               1.1595670125606186E-02
               5.6705163755843134E-04
              -1.4327616182100877E-02
               1.3916673981829808E-03
               1.3615572898385037E-03
               4.6240360516370594E-04
               4.5440025370226062E-03
              -3.1553459846020140E-03
              -4.9824430840792718E-03
               1.4458470539981751E-02
               2.2079196941465185E-03
              -6.1614492285600559E-04
              -1.0345086029372359E-02
               7.3919407989157379E-03
               5.1762312742237716E-04
              -1.6146698403534765E-03
              -1.1065190874884605E-03
              -6.8256999363199809E-03
               8.7788913167575339E-03
               3.9040248754523849E-03
              -7.0693709664133072E-03
               7.0349516571820390E-03
              -3.7814178884130107E-03
              -1.7072721281554402E-04
               6.7856342449854556E-04
              -7.5446024910187485E-04
               3.7785857234376012E-03
              -6.3469435135997832E-03
               1.4221246711253105E-02
               4.8415793230864736E-04
               4.8369317060350525E-03
               1.6383714225426099E-03
              -4.7947620409247473E-03
               6.1766373141632375E-03
              -1.1769854257696341E-03
              -5.2084338000411472E-03
               3.8606477266920009E-04
              -1.0666649530115211E-02
              -9.0506737827544363E-03
               8.0935507902031318E-03
               1.3538087890144056E-02
               8.9088579813187806E-03
              -2.4427654359517170E-03
               2.4887337396008345E-03
               1.2620259605295616E-02
              -1.4126179905793365E-02
              -4.3112101346374637E-03
               2.0551160928538119E-03
               1.7302774797225730E-03
              -2.2907967140448947E-03
               3.4467297791371574E-04
               4.6318975736894296E-03
               5.4053512585059381E-04
              -7.7453528020136877E-03
              -2.2148030042921786E-03
               4.7518257361251178E-03
               7.6539042013174371E-03
              -2.3439339906223206E-03
               8.9821174770129911E-03
              -1.8090961551378768E-03
               4.5034783178100005E-03
               3.3323779714605007E-03
               3.5904226020984885E-03
               6.7239715306837674E-03
              -3.8686943400224709E-03
              -2.8993706406641425E-03
               5.7351227652996514E-03
              -1.1650238089727111E-02
              -1.2154132061475628E-02
              -1.8729513740802512E-03
               6.8305671112323177E-03
              -1.5783979340142989E-03
               1.7910831552473212E-02
              -1.3308657306149201E-02
               1.0446869332241272E-02
              -2.1324784410464134E-02
               7.6464995241844243E-03
               1.0862440528252099E-02
               2.7120793176907555E-02
               9.8435939722664300E-03
               4.7799896500257868E-03
               1.0058925386574437E-02
               2.6833472343486225E-03
              -1.3831957403140349E-03
              -5.7868687876139616E-03
               8.3089451884800943E-03
              -1.1154338109417345E-02
              -5.0173675668834690E-03
               5.3586073772015847E-03
              -1.6012262355032661E-03
               6.6581711098422022E-03
              -2.7463280454342208E-03
              -1.3811981789712711E-02
               9.2483710221199361E-03
               8.0184480596785085E-04
               9.4106325056314312E-03
              -8.9637146966427897E-03
              -4.1311949087386888E-03
              -6.5420227711848857E-03
               1.1812138467392811E-03
               8.4588878112302097E-03
              -4.7213405784745288E-03
              -4.4331087073279807E-04
               2.7397692817630551E-03
              -1.0561034455328385E-02
              -6.3980064013012680E-04
               5.0748786078033750E-03
               3.1951640163416185E-04
              -4.3635987589525421E-03
              -6.5278484496603360E-03
               1.4541114998976409E-02
              -4.8908876664386057E-03
              -1.6126477391290524E-02
               1.1794184339734082E-02
               1.4733084702623968E-02
              -1.0480233886229297E-02
               1.0634005904783576E-02
              -4.2078472154771533E-03
               5.4596197102312217E-03
               1.5401070737707273E-02
               2.6862891666749769E-03
              -9.3236858755630769E-03
              -3.5438095216881035E-03
              -1.9802500382676575E-03
               1.0390221085302293E-02
               9.2609604987108265E-03
               1.1920203491844897E-03
              -1.9765317841917520E-03
               1.4226085353219496E-05
               3.4734483617996650E-04
               2.2994043858860060E-03
               2.8722397659309374E-04
              -3.3459399422678900E-03
              -4.7520887702562301E-03
              -1.3413223095832696E-02
              -9.0688992158354277E-03
               3.1433425465712738E-03
               5.3702909780934905E-03
               2.7826574783463682E-03
               9.8332253305958035E-03
              -7.2926018077665335E-03
               5.3948064952880556E-03
               1.0652264741547410E-02
              -1.3292000738013570E-03
              -6.8074510994242774E-04
               2.6445699479796659E-03
              -8.1738641068907249E-03
               1.7501406857813276E-03
               5.5085633756963379E-03
              -7.3561947713020959E-03
               1.3793937206054770E-02
              -4.4129292065077366E-03
               3.9828546669917553E-03
              -2.5848396691091060E-03
               3.2560445310312013E-03
               7.7698224656383577E-03
              -1.0859742841686460E-02
               5.3593161785889338E-03
               9.8618340540717123E-03
              -9.0952472782176007E-03
              -3.8832918354975939E-03
               4.2750926832558975E-03
               8.4966029733979885E-04
              -8.8245225688261351E-03
               2.1356947205559293E-02
              -8.5842208021897921E-04
              -9.3441573655660137E-03
               4.0503985597573362E-03
              -1.2485606069295312E-02
               2.6379429863661544E-03
               2.4278337363799300E-03
              -3.3477619596475215E-03
               3.9190297506182612E-03
              -4.0261108212705171E-03
              -5.1581837604987484E-03
               6.2753133983969450E-03
               3.4410810196336345E-03
              -3.3309065341188752E-03
               1.4600815006483968E-02
              -5.1602767298195556E-03
              -3.6401385683530944E-03
               2.5117526500276315E-03
               3.3564101720765108E-03
               3.5128836435854584E-03
              -9.9118567075951944E-03
               7.0201104242093955E-03
              -5.8132590281631102E-03
               2.5220990700369106E-03
               1.0263398925866745E-03
              -1.3166470693679517E-03
               1.2678844783942671E-03
               4.8085805790722335E-03
              -2.2500879549885245E-03
              -1.5053513679108876E-02
              -5.3218907776608467E-04
               8.8478497642936454E-03
               7.3271501548621805E-03
               3.1770287116536606E-03
               1.9343420258109787E-03
               3.5312043770799701E-03
              -2.2131726960602550E-02
              -1.8286247157536829E-03
               7.1109062465194205E-03
              -2.3891956979837699E-03
               9.6246850185585740E-03
              -4.8968023321563393E-03
              -5.2062620660355448E-03
               5.0221437021890133E-03
               2.2978808433450643E-03
              -2.8772165061706307E-03
               1.3457573347433098E-02
              -2.1982365267587734E-03
              -3.4582842900330877E-03
              -9.9639562774468497E-03
               1.1761103727279433E-02
              -2.2084675575504585E-03
               2.4096190503347459E-03
               6.4596962824755222E-03
               4.2185796524648314E-03
              -1.0119107908743302E-02
              -3.8287792558003839E-03
              -4.3489352909834647E-03
               1.2917288829299930E-03
               5.9112748858337226E-03
               1.4285759105886393E-03
               2.0515088047640307E-03
               1.6580465538475146E-03
               2.9186180588705005E-03
              -2.4354686735405138E-03
               3.6180777906076435E-03
               4.0608973955107907E-03
               2.5016332890270792E-03
              -2.7490088226792631E-03
               1.0202755363660661E-03
               3.5664226450898158E-03
              -3.7202341114229666E-03
               1.0994607897523873E-02
               2.5803604390182105E-03
              -2.5579279269459022E-03
              -4.9071489630275328E-03
               1.8645790838621421E-02
              -9.5346349414213924E-03
              -4.2081407719873048E-03
              -4.3324052645673100E-03
               1.5563345843910214E-03
               1.7911905389728614E-03
              -7.8991018243790012E-03
              -1.2536078598536017E-02
              -2.1629445643861187E-02
               1.4715990916185638E-02
               1.4030122264396148E-02
              -1.2435234226232032E-03
              -7.1609200445259258E-03
              -1.6531437385939860E-03
              -7.0457650594414687E-04
               9.5285856952415822E-03
              -8.3604647383049655E-04
              -6.2288443227237027E-03
              -2.6195277757204757E-03
               9.6913636543365517E-03
              -1.8264256610095015E-03
               4.1612502951695746E-03
               7.0607305601464625E-04
               9.7119698723251695E-03
               1.1579766015298561E-02
              -8.2747034449059433E-03
              -4.5505507688746892E-03
              -1.1289645942481299E-02
               5.8285111896986522E-04
              -4.3292536107459104E-04
               6.4886247205332934E-05
               4.6565637758512746E-03
              -2.1454189513630255E-02
              -1.0777338819136170E-02
               3.5002169526573844E-03
               1.5481486932774180E-03
               1.5601300816023194E-02
               8.8402065156899211E-03
              -2.2144541712595181E-03
               6.3730729391885295E-03
               4.4543927950849342E-03
               5.6935604242399891E-04
              -7.6508955577588508E-03
               1.7859858993666065E-03
               1.3227306775686540E-02
              -9.5066205678225150E-03
              -4.7147116365319902E-03
              -4.7429767786638230E-03
               1.3460218560903327E-02
              -1.6441398255048029E-03
              -5.7246343488651765E-03
               5.9310801021900525E-03
               4.9844855242094383E-03
               6.3692339137098623E-03
              -4.0495738861078172E-03
              -1.7777668093209946E-03
              -1.2212841342317158E-03
              -3.2548081076327921E-03
               1.1406618701992007E-02
               3.8319465314378852E-03
               2.8553782555393553E-03
              -2.9883932772189273E-03
              -2.8530497859482898E-03
              -2.4650302487722814E-03
               1.0882938520135027E-02
              -1.7406286941349268E-03
               6.4078208376037882E-03
               9.0517992296359345E-03
               5.4960498121357322E-03
               3.3450882482215553E-03
               5.1109481975411463E-03
              -1.0889955560629055E-02
               3.8456482763273418E-03
              -5.8070384525902706E-04
               1.5779840275294108E-03
               6.2600768596813364E-03
               3.1070509104645292E-04
               3.7847543232321806E-03
              -1.2985795795994893E-02
               1.4661865011547226E-02
              -1.7193997751986012E-03
              -9.7214271419999755E-03
              -3.7007612032447612E-03
              -1.7193459625437536E-03
               2.7931308791710689E-03
              -3.1877910800267675E-03
              -4.3255853584295498E-03
               5.6353776983547746E-03
              -6.5882051457173403E-04
              -4.9542625899323149E-03
               2.2240679296362860E-04
              -8.8243803085085969E-03
              -7.1410412932111427E-03
               1.8148299205471901E-03
              -3.2807017430039125E-04
               6.2147151335885499E-03
              -1.0542539519335035E-02
               2.2433977430117999E-03
               2.7880898192771779E-03
               1.1462539581949551E-03
               1.9952139801447807E-04
               1.2532724489480469E-03
              -6.2014819356659822E-03
              -1.9281150700996357E-03
              -3.4546844572504497E-03
              -4.3844596771960825E-03
               1.6579824446279916E-02
               2.3615220727031251E-04
              -7.2554444238517573E-03
              -8.1664673387907838E-03
              -5.3538742845614384E-04
              -1.8788220829707139E-03
              -8.0280654882679096E-04
              -2.4881079972429660E-03
               2.8379001983387130E-03
              -5.0747922482893056E-03
               1.6909057953446980E-03
               4.8178978270363116E-03
              -8.1174775565018148E-03
              -5.1822046631361677E-03
               6.9321726840396707E-03
              -3.8258225251605231E-03
               6.7083669804365673E-03
              -1.0615562714692784E-02
               1.3069646343210647E-03
               1.6713167172428122E-03
              -2.6964309067438832E-03
               3.6371470821781392E-03
               4.5317572069673269E-03
              -2.6942867294460788E-03
               1.3477990278187349E-03
               2.3728649081943571E-03
              -3.9183039828315858E-03
               4.5155557904263477E-03
               7.2409861855396093E-03
               6.7332176477149031E-03
               1.4481947094777197E-03
               9.8051561268854628E-03
               1.9406738670670067E-03
              -4.9013779963650549E-03
              -6.8260438639081156E-04
               1.5864842324055852E-02
              -6.8319258508073542E-03
               7.4898410264181243E-05
              -2.3947977248424662E-03
              -7.8844158703054090E-04
              -3.4222063299866427E-03
               7.3650308180227319E-04
              -5.5846741458343008E-03
              -7.3332327489434483E-03
               3.1635262436055696E-03
               6.2394024495567692E-03
               1.3019347602142481E-02
               1.8172735448133202E-03
              -9.3697049755423825E-03
         &END THERMOSTAT_ENERGY
         &RNG_INIT
Wiener process for Thermostat # 1        1 F T T   3.7280401166127353E-01        2396824340.0        1285798124.0        1970812289.0        4262378425.0        2500496477.0        3105761546.0             12345.0             12345.0             12345.0             12345.0             12345.0             12345.0             12345.0             12345.0             12345.0             12345.0             12345.0             12345.0
Wiener process for Thermostat # 2        1 F T T  -2.8031459711754392E-01        1517340215.0         764337745.0        1777988352.0        1272471177.0        3093987526.0        2495380513.0        3692455944.0        1366884236.0        2968912127.0         335948734.0        4161675175.0         475798818.0        3692455944.0        1366884236.0        2968912127.0         335948734.0        4161675175.0         475798818.0
Wiener process for Thermostat # 3        1 F T T   7.0414863813957229E-01        1874984675.0        3540139467.0        3102430019.0        1608426380.0         643336117.0        1230365417.0        1015873554.0        1310354410.0        2249465273.0         994084013.0        2912484720.0        3876682925.0        1015873554.0        1310354410.0        2249465273.0         994084013.0        2912484720.0        3876682925.0
Wiener process for Thermostat # 4        1 F T T   2.2606224243119818E-01        3416187057.0        1637601412.0         393440280.0        2948182120.0        3407482107.0        2343296956.0        2338701263.0        1119171942.0        2570676563.0         317077452.0        3194180850.0         618832124.0        2338701263.0        1119171942.0        2570676563.0         317077452.0        3194180850.0         618832124.0
Wiener process for Thermostat # 5        1 F T T  -1.0267294306732384E+00         315072143.0        4137263975.0        4196656129.0        1282237791.0        3639735469.0        1937530485.0        1597262096.0        3906379055.0        3312112953.0        1016013135.0        4099474108.0         275305423.0        1597262096.0        3906379055.0        3312112953.0        1016013135.0        4099474108.0         275305423.0
Wiener process for Thermostat # 6        1 F T T   9.2624835653208748E-01        3222219212.0        3105331301.0        2094058484.0        2511776071.0        3719186732.0        3505559269.0          97147054.0        3131372450.0         829345164.0        3691032523.0        3006063034.0        4259826321.0          97147054.0        3131372450.0         829345164.0        3691032523.0        3006063034.0        4259826321.0
Wiener process for Thermostat # 7        1 F T T  -4.6721006089689310E-01        2921304001.0        3534845789.0         764942181.0        2980414860.0        2807768180.0         274774080.0         796079799.0        2105258207.0         955365076.0        2923159030.0        4116632677.0        3067683584.0         796079799.0        2105258207.0         955365076.0        2923159030.0        4116632677.0        3067683584.0
Wiener process for Thermostat # 8        1 F T T   4.8809173354813140E-01        3327178806.0        3682317356.0        2663069382.0         319044460.0        3975670735.0         562702070.0        3281794178.0        2616230133.0        1457051261.0        2762791137.0        2480527362.0        2282316169.0        3281794178.0        2616230133.0        1457051261.0        2762791137.0        2480527362.0        2282316169.0
Wiener process for Thermostat # 9        1 F T T  -8.1805399140306756E-01         433221438.0         349071730.0        2033385903.0        2639944804.0        3988392127.0        3801627598.0        3777646647.0        1837464056.0        4204654757.0         664239048.0        4190510072.0        2959195122.0        3777646647.0        1837464056.0        4204654757.0         664239048.0        4190510072.0        2959195122.0
Wiener process for Thermostat # 10       1 F T T  -2.7062828385550008E-01        2290601073.0        1666814614.0        3289919364.0        2930088785.0        1500929831.0        1860303943.0        4215590817.0        3862461878.0        1087200967.0        1544910132.0         936383720.0        1611370123.0        4215590817.0        3862461878.0        1087200967.0        1544910132.0         936383720.0        1611370123.0
Wiener process for Thermostat # 11       1 F T T   6.8652417552969780E-01        2151060734.0         580174056.0        1748210725.0         399674445.0        1879492130.0        2741776977.0        1683636369.0         362165168.0         814316280.0         869382050.0         980203903.0        2062101717.0        1683636369.0         362165168.0         814316280.0         869382050.0         980203903.0        2062101717.0
Wiener process for Thermostat # 12       1 F T T   1.2985463821691814E+00        3478492904.0        1830493925.0          17364685.0        2058676739.0        2676153401.0        4087350495.0         272317999.0         166758548.0         310112982.0         201045826.0        1680231254.0         118290799.0         272317999.0         166758548.0         310112982.0         201045826.0        1680231254.0         118290799.0
Wiener process for Thermostat # 13       1 F T T   2.0061703114922356E+00        2097018817.0        1300727704.0         367347443.0         582130443.0        2824054692.0        3111690587.0        2245755202.0        1652682525.0        2865544364.0         721509566.0         209733568.0         592362218.0        2245755202.0        1652682525.0        2865544364.0         721509566.0         209733568.0         592362218.0