 # Version information for this restart file 
 # current date 2024-11-26 21:57:40.977
 # current working dir /scratch/work/courses/CHEM-GA-2671-2024fa/students/hh2635/comp-lab-class-2024/Week12-IntroAIMD/runs_proton
 # Program compiled at                              Sat Dec 12 18:27:15 EST 2020
 # Program compiled on                                         cs001.nyu.cluster
 # Program compiled for                                                nyu-intel
 # Source code revision number                                       git:8c64c6e
 &GLOBAL
   PRINT_LEVEL  LOW
   PROJECT_NAME proton_aimd_1ns_every0.5fs
   RUN_TYPE  MD
   WALLTIME 21600
 &END GLOBAL
 &MOTION
   &GEO_OPT
     OPTIMIZER  BFGS
     MAX_ITER  100
     MAX_DR     3.0000000000000001E-03
     &BFGS
     &END BFGS
   &END GEO_OPT
   &MD
     ENSEMBLE  NVT
     STEPS  2000
     TIMESTEP     4.9999999999999994E-01
     STEP_START_VAL  1998
     TIME_START_VAL     9.9899999999998238E+02
     ECONS_START_VAL    -1.1027144142478624E+03
     TEMPERATURE     3.0000000000000000E+02
     &THERMOSTAT
       TYPE  GLE
       REGION  MASSIVE
       &GLE
         NDIM  5
         A_SCALE     1.0000000000000000E+00
         A_LIST     1.8595758612559999E+02    2.7263853498399998E-01    1.1526100454610001E+01   -3.6414578262600003E+01 \
             2.3173375816020001E+02
         A_LIST    -2.7809524712060002E-01    8.5951591808710006E-05    7.2189048017650004E-01   -1.9844539343859999E-01 \
             4.2409257583420001E-01
         A_LIST    -1.4825808131210000E+01   -7.2189048017650004E-01    1.3590902121280000E+00    5.1498896280349999E+00 \
            -9.9949268450990001E+00
         A_LIST    -1.0372189126880000E+01    1.9844539343859999E-01   -5.1498896280349999E+00    2.6661910891169999E+01 \
             1.1507715495310000E+01
         A_LIST     2.1801346360420001E+02   -4.2409257583420001E-01    9.9949268450990001E+00   -1.1507715495310000E+01 \
             3.0958394565589998E+02
         &THERMOSTAT_ENERGY
               7.9848111848685368E-03
              -1.9859100227034633E-03
              -1.4746391308637996E-03
               1.8867277907034900E-03
              -1.2429316972911626E-02
               4.1158971450788045E-04
              -1.2882804850819390E-03
              -1.5621259904103971E-03
               1.3745563430790799E-02
               4.7582048643245471E-03
               4.6233734913325199E-03
              -2.5302921978377626E-03
              -6.0679159668507584E-03
              -8.3193868087202624E-03
               6.1649932619318865E-03
              -1.1920611547808119E-02
               6.6769167428896358E-03
              -3.9376325736020113E-03
              -1.0104548848233683E-03
               6.0302583259532567E-04
               3.9964887552502185E-04
               5.0697657086651356E-03
              -1.1684906241694156E-02
              -1.4597282946270066E-03
               5.3669681123774066E-03
              -4.1839616499510079E-03
               2.6278558238284318E-03
               6.7719112288876086E-04
               5.5707502938691228E-03
               2.8428716283155782E-03
              -1.4653910719216242E-03
              -3.2482865133938014E-03
               4.7687220283091662E-03
               1.0716418657764674E-03
              -1.3201908469506338E-02
               1.2802369702853386E-02
              -1.9058205587090440E-03
              -3.9573640706281532E-03
               5.3856709052189000E-04
              -2.2951003704851135E-03
               4.8585584746156122E-03
              -1.2556394123728366E-02
               1.0852618618963807E-02
               5.2746640249890578E-03
               9.4485532707247097E-04
              -2.2283106738299335E-03
              -1.0533136091193282E-02
               8.6850799595585611E-03
              -6.8324791637980103E-04
               4.3510873202809502E-03
              -4.5239160467741880E-03
              -2.0323657689523184E-04
              -8.8258618487237434E-04
              -2.2360350220857824E-03
              -8.2111304850690826E-03
               7.1478094408707624E-03
              -3.8635852060847882E-03
              -3.8560653913445424E-03
               3.0748259288206001E-03
               5.1505156597252246E-03
              -6.7586252979346395E-03
               5.5204357492738571E-03
               1.5699225045821070E-02
              -6.1420211150371249E-03
               4.8918137985968727E-03
               4.1756177732122984E-03
              -6.6735933437879523E-03
               5.6631579755896441E-03
               8.1545997094009288E-03
              -1.2739459344690247E-02
              -4.0581189589173434E-03
              -1.4456582027119710E-03
              -3.4928471146557344E-03
              -2.6739875922382138E-03
              -2.0694627125831798E-04
              -1.1051357467125754E-02
               2.3143817711316381E-02
              -1.5339063082657370E-03
               5.9167392256327545E-03
              -6.1481237635749439E-03
              -2.5656974540445069E-03
              -9.6595834670019209E-03
               5.2142509085842566E-03
              -1.6711830202564561E-03
               7.0596331461307820E-03
               4.0297394853199640E-03
               7.2762794744572605E-04
              -1.2465929735493550E-02
               1.0582226628060357E-02
              -5.3267014248328283E-03
               9.8266165483070931E-04
              -6.7407666993094008E-03
               6.3656698631546016E-03
               2.8626050633189944E-03
              -1.5286970330359830E-02
               4.3232478279280279E-03
               1.4375249949270365E-03
               7.3019081398104113E-04
               2.9500976421706088E-03
              -1.9125885922195184E-03
               8.2409259727355775E-03
              -5.0653296282028642E-03
               6.3879621433782906E-03
               1.6665614999132643E-02
               1.1713551215387176E-02
               1.4225197167838067E-02
               9.5063712480748814E-03
               2.2184556295672439E-02
               4.1006067986631223E-03
              -7.3712453841486099E-03
               5.7661907667967728E-03
              -1.9525922659712083E-03
               7.0133558668531992E-03
               9.3176362467320200E-04
               4.8664349517306302E-04
              -3.2479141260620382E-03
              -1.0048913365869118E-02
              -2.5338645027941889E-03
               5.2532316535892866E-03
               1.5683860357184301E-03
              -4.3087234579381232E-04
              -1.8388511815220219E-03
               9.6769723055658129E-03
               1.4052652430806448E-02
              -1.0980086398065546E-02
              -1.6527046878294073E-02
               6.0225041195017849E-03
              -4.6375243639799509E-03
              -2.5036533697945914E-03
               3.5427104256363835E-03
              -3.2866779753483806E-03
               2.9946855417032959E-03
               5.6273752056111848E-03
               2.1293183127490244E-03
               7.8567779688569440E-05
               3.6547449938524063E-03
               4.9149805003129640E-03
              -5.6345308909083371E-03
              -1.0314121725911184E-02
              -3.0902044018730713E-03
              -4.4340698346950549E-03
               5.5735585660625737E-03
               1.3535715215000558E-02
              -3.0380587527873283E-03
               1.2852074785104552E-03
              -9.1600609753536791E-03
               5.7879540299765869E-03
              -2.5943427746821482E-03
               6.8812137785481784E-04
               1.1273422198940852E-02
              -1.3771792312325856E-02
               4.9431914663843526E-03
               1.2780641602973897E-03
               2.7829058215344425E-03
               6.2204031032979954E-03
               3.6178016946578294E-03
              -9.5373661004989987E-04
               2.6552304095889519E-03
              -6.0163108024785606E-03
              -2.8537979970577989E-04
               2.2813519827920375E-03
               3.1963063709097724E-03
              -9.1865618974216697E-04
               7.7541097053837656E-03
               8.2099677165942513E-03
               2.5906266970712136E-02
               8.6834545399082693E-03
              -2.4076516874517361E-02
              -5.9449816746766240E-04
               2.6785043804103169E-03
              -4.8999045191249844E-03
               7.2208441995106299E-03
               1.8615874577492958E-03
               3.4821030362789339E-04
              -3.8210550253130957E-03
               1.8485702111928300E-02
              -1.2252638279531831E-02
               5.4537025073758986E-03
              -1.3489436191066377E-02
               8.8466926866814632E-03
               1.8495153402653883E-03
              -4.7553643634636990E-03
               1.2784150434616668E-03
              -1.0611127719676563E-02
               1.1567515743370976E-02
               9.1062226901857785E-04
              -1.4282991724822657E-02
               8.8761693092634202E-04
               1.7194165678441242E-03
               3.9866628921233311E-04
               4.2141910632937322E-03
              -3.5537562702146726E-03
              -4.3303166168067765E-03
               1.4604104163087356E-02
               2.0736401200538547E-03
              -2.2487375448341726E-04
              -1.0397207010236567E-02
               6.1033806738742639E-03
               6.5741702684739560E-04
              -1.4819068189543950E-03
              -1.2532272215446520E-03
              -6.8061546329127127E-03
               8.8491719701591521E-03
               3.9389694017735810E-03
              -6.2075980696237503E-03
               6.4632576911926734E-03
              -3.5337712846035783E-03
              -8.6922302451661256E-05
               6.5889502123658123E-04
              -7.4360813281305373E-04
               3.7364669178692792E-03
              -6.1822968655732315E-03
               1.4180788047846716E-02
               6.3309266073843535E-04
               4.8924535828717263E-03
               1.4881527254712993E-03
              -4.8606284631943584E-03
               6.3074553838535895E-03
              -4.5886050126977694E-04
              -5.2112560778453309E-03
              -3.7862969424843317E-04
              -1.0943341521670589E-02
              -8.6556896472358060E-03
               8.0792629687503580E-03
               1.3339923702411109E-02
               8.7956424417585197E-03
              -2.2410027181789930E-03
               3.0098762232048330E-03
               1.2878684084280969E-02
              -1.4485237211822882E-02
              -4.6101707771058235E-03
               2.3731509787236478E-03
               2.2382791328666996E-03
              -2.1908619489396570E-03
               6.3645617572786139E-04
               4.5754259098334639E-03
               8.3013622081239006E-04
              -7.7162490102187543E-03
              -2.2083479959875839E-03
               4.8015520082224268E-03
               7.9933087052514555E-03
              -2.3982065923553262E-03
               8.8329808889545270E-03
              -1.6363832822981275E-03
               4.8921704417995756E-03
               3.7052847554496300E-03
               2.6467658656125956E-03
               6.9289877571109219E-03
              -3.9224182641235264E-03
              -2.8357740164084788E-03
               5.7885792664381453E-03
              -1.1823930488414878E-02
              -1.2739958759516546E-02
              -1.8092977760283879E-03
               7.4820370319959731E-03
              -1.5219978609419273E-03
               1.7871101895133093E-02
              -1.2983646945089607E-02
               1.0028541051698030E-02
              -2.1488622461796645E-02
               7.8799088819533833E-03
               1.1077474243481315E-02
               2.7223500909868900E-02
               9.8021182733994058E-03
               3.6182402640079657E-03
               1.0807781670370966E-02
               2.3414791472117433E-03
              -2.0523324756563915E-03
              -5.9350270549092792E-03
               8.3077608609179471E-03
              -1.1658693678485300E-02
              -5.3028525241646442E-03
               5.5803413423845399E-03
              -1.3043874178402576E-03
               6.8576656423542295E-03
              -2.7743644556221703E-03
              -1.3731789889518555E-02
               9.5957577205315614E-03
               7.1587663359329746E-04
               9.3347882724526057E-03
              -9.0535566256152323E-03
              -4.6312732732004796E-03
              -6.7381391226119820E-03
               1.0095446667003716E-03
               8.2713361343688778E-03
              -4.5777040500707454E-03
              -2.1784066909504552E-04
               2.9280524864559259E-03
              -1.0533141125317407E-02
              -6.1168501147887378E-04
               7.0453091969651703E-03
               5.3313015377887195E-04
              -3.7885538377143957E-03
              -6.3760507021445112E-03
               1.4521579445983116E-02
              -5.0506769095036942E-03
              -1.6961261496309013E-02
               1.1764440906434734E-02
               1.4804316887718858E-02
              -1.0505013665843724E-02
               1.0868278891689846E-02
              -4.3991510932606930E-03
               5.3768323376892600E-03
               1.5548567268593882E-02
               2.9897327908005181E-03
              -9.2981108018230663E-03
              -1.8057325318720401E-03
              -1.8371206881633612E-03
               1.0414025106218293E-02
               8.5374036418861179E-03
               1.1170770319953055E-03
              -2.0302217517834849E-03
               1.8958409163516410E-04
               3.5775295769344692E-04
               2.4904597853668722E-03
               3.6863874035278609E-04
              -3.2651129544721425E-03
              -4.8963118976656497E-03
              -1.3483106405071247E-02
              -9.0919508294519322E-03
               3.2957980716859705E-03
               4.9008832720841772E-03
               2.8239461695970074E-03
               9.6627463107319365E-03
              -7.5077445879279513E-03
               4.3016860879861321E-03
               1.0686503780937594E-02
              -4.6438226925373991E-04
              -7.7251693188206858E-04
               2.4669486670296733E-03
              -7.4448858401245559E-03
               2.3448654880889363E-03
               5.5503481734102047E-03
              -7.6071726916264147E-03
               1.3794703244490784E-02
              -4.3853346187950389E-03
               3.8760068163712653E-03
              -2.6040772706016927E-03
               3.2515644624431972E-03
               8.0548006625547359E-03
              -1.0895538006905577E-02
               4.5460391619782910E-03
               9.8352965333416923E-03
              -9.0360670983692191E-03
              -3.7097899213728138E-03
               5.0011579766201164E-03
               1.4767352295592586E-03
              -8.8253778717302441E-03
               2.1366298797263698E-02
              -8.9965999329102867E-04
              -9.2848831051420121E-03
               4.1005049466676926E-03
              -1.2735592111782610E-02
               3.6622673079068726E-03
               2.4436817855758345E-03
              -3.0251340042063042E-03
               3.8921557475050422E-03
              -4.0422654868680517E-03
              -5.0257174411805989E-03
               6.6082442279045547E-03
               3.4032403836641105E-03
              -2.9472079136529123E-03
               1.4472123203229560E-02
              -4.7492473506353999E-03
              -3.7729720967266179E-03
               2.2828203200808742E-03
               3.1912053522439371E-03
               3.5318173439715219E-03
              -1.0160864692768319E-02
               6.9545747589306855E-03
              -5.6267928066210827E-03
               1.7287054212843777E-03
               1.3999274943160640E-03
              -1.9511924100246198E-03
               1.7036967138178019E-03
               5.0396844970260167E-03
              -2.2052034981101809E-03
              -1.5086508553725880E-02
              -2.7126926373479017E-04
               8.8967133447184436E-03
               7.1140422562681596E-03
               3.1292356315321566E-03
               1.0249591315569418E-03
               3.7529427064299302E-03
              -2.1785543663336838E-02
              -2.0464160426363889E-03
               7.0539046462689808E-03
              -2.3619581896659027E-03
               9.9136141724198296E-03
              -4.8863836171737784E-03
              -4.5657492861728606E-03
               5.2789500106701897E-03
               2.1875887703902428E-03
              -2.8646727287714060E-03
               1.3460010734925408E-02
              -2.0379913925146010E-03
              -2.5808642893914917E-03
              -1.0223009589169271E-02
               1.1755590485178661E-02
              -2.1424561466781749E-03
               2.2423226596941944E-03
               6.8875481601559990E-03
               3.9774445424969086E-03
              -1.0086184435616747E-02
              -3.6571858972772190E-03
              -4.3193177727923930E-03
               1.4261350017615792E-03
               5.8517296224127047E-03
               1.5553451507592712E-03
               2.2796686157499908E-03
               1.6961935068077320E-03
               3.0605377093197760E-03
              -2.6620292047533347E-03
               4.3110237884488780E-03
               4.3742737153386656E-03
               2.7105125481315839E-03
              -3.8018562545150750E-03
               1.6887294998418467E-03
               3.1035975671267341E-03
              -3.7264255864824340E-03
               1.1122788739463223E-02
               2.3184544480089218E-03
              -1.7918104918422278E-03
              -4.8192170852304544E-03
               1.9344104220203891E-02
              -9.6581220048149626E-03
              -4.3078012320586709E-03
              -4.5615187928729293E-03
               1.3914507494705286E-03
               2.2094623958395301E-03
              -7.8125208158228276E-03
              -1.2645571545968612E-02
              -2.2340180283233979E-02
               1.4626402284821443E-02
               1.4217286960295382E-02
               5.9865832099317796E-04
              -7.5367906417644469E-03
              -2.2300870132583540E-03
              -5.8570305476087392E-04
               8.8000275910592486E-03
              -7.0859423985349113E-04
              -6.7905217039906990E-03
              -2.6351544975892933E-03
               1.0158891176106766E-02
              -1.4164862184090606E-03
               4.4541707429039037E-03
               1.0096630169064548E-03
               9.9116599864890742E-03
               1.1073489913708769E-02
              -8.2782406252593366E-03
              -5.1211361175570761E-03
              -1.1219512395569320E-02
               5.2721005344583398E-04
               1.3073706793295555E-03
               1.6417800833940752E-04
               4.6765626662038807E-03
              -2.1525090106614259E-02
              -1.1230344848927093E-02
               3.4590944984239378E-03
               1.8463822649783532E-03
               1.5715226035481093E-02
               8.9144819275810642E-03
              -1.8082958141907622E-03
               6.1746878895537491E-03
               4.1596031383623177E-03
               7.9374560210320453E-04
              -7.7521053059991562E-03
               1.9422807219230934E-03
               1.3100727703479384E-02
              -9.5260889334749538E-03
              -4.3655518403863808E-03
              -4.8164091133155555E-03
               1.2686880901815932E-02
              -1.5367460362540101E-03
              -5.5412938486919215E-03
               6.5171366015835969E-03
               4.7070338588256523E-03
               6.5965743184653288E-03
              -3.7317156291941972E-03
              -1.4457423630421422E-03
              -1.0094218441513932E-03
              -3.6876292783781083E-03
               1.0727615080824924E-02
               3.7734378601477661E-03
               2.4280486407110653E-03
              -2.9371943751959999E-03
              -2.6858567867031414E-03
              -2.0942981707929016E-03
               1.1191261582114235E-02
              -1.4557713604174711E-03
               6.2981518838447874E-03
               8.6107501527314476E-03
               5.8293933821688161E-03
               3.4296201255447083E-03
               4.9421759926644489E-03
              -1.0980074437230270E-02
               4.3411503727020387E-03
              -6.2294788856960006E-04
               1.6396239592599659E-03
               6.2026670143813236E-03
               1.1860944466507296E-03
               4.1896337625272218E-03
              -1.3370027898058493E-02
               1.5036001490381666E-02
              -1.8222085060572615E-03
              -9.6637985024892025E-03
              -3.7384674602906334E-03
              -1.7570345366262246E-03
               3.5486463276257932E-03
              -3.0839671686079036E-03
              -4.5683224423997025E-03
               6.1753631305752022E-03
              -9.5659250003958724E-04
              -4.9464365210213756E-03
               1.5255748713175827E-04
              -8.9095258416995952E-03
              -7.1624611513342847E-03
               1.8990145399669029E-03
              -3.4912102125141234E-04
               6.2197628819956512E-03
              -9.7795580360330332E-03
               1.9127623754514255E-03
               2.8423821243131996E-03
               1.1031748399800729E-03
              -7.6237335853756151E-04
               1.4880011952584215E-03
              -5.9314207315159899E-03
              -2.6505061273379262E-03
              -2.5522686256415432E-03
              -4.4776975625815812E-03
               1.6549969482289061E-02
               3.9343560892143067E-05
              -7.1039729305068054E-03
              -7.8321962744807919E-03
               2.9887645993782210E-05
              -1.9546970064654996E-03
              -1.0290063152213035E-03
              -2.4513822907522103E-03
               2.9405752591572052E-03
              -5.9405890276890807E-03
               1.6031577399840918E-03
               4.7763032903152701E-03
              -8.1200239628729937E-03
              -5.1573297136712666E-03
               7.0429572904774900E-03
              -4.0656984501632361E-03
               6.2522414932547040E-03
              -1.0842492463685927E-02
               1.6769288445872416E-03
               1.6423886494739230E-03
              -3.1064330586928913E-03
               3.9794565131679432E-03
               4.6858594936984100E-03
              -2.8430167301982051E-03
               1.2955481721218494E-03
               2.2773482054019088E-03
              -3.8916902255230965E-03
               4.4774890225236837E-03
               7.3881413456604499E-03
               6.7644614365290068E-03
               1.2178319701576104E-03
               9.8760778568544177E-03
               1.9668879727232852E-03
              -4.7122623165411518E-03
              -6.5320613171288271E-04
               1.5852208708995490E-02
              -6.7920954245602305E-03
              -1.8156230916698489E-06
              -2.3877641834864492E-03
              -9.2672471860151193E-04
              -3.3887467971682583E-03
               7.6646444527366767E-04
              -4.8162101247594680E-03
              -7.3278939772321939E-03
               3.1228758793495725E-03
               6.8611257477323570E-03
               1.3046538263952181E-02
               1.6163432680477456E-03
              -9.5935894559293598E-03
         &END THERMOSTAT_ENERGY
         &RNG_INIT
Wiener process for Thermostat # 1        1 F T T  -1.5601997779545997E+00        4027757407.0        1559045809.0        3403552754.0        1703120254.0         453778739.0        2861026355.0             12345.0             12345.0             12345.0             12345.0             12345.0             12345.0             12345.0             12345.0             12345.0             12345.0             12345.0             12345.0
Wiener process for Thermostat # 2        1 F T T  -4.0112764818655514E-02        3838101567.0        1430396723.0        1556923290.0        2889325561.0         607612135.0        3761282217.0        3692455944.0        1366884236.0        2968912127.0         335948734.0        4161675175.0         475798818.0        3692455944.0        1366884236.0        2968912127.0         335948734.0        4161675175.0         475798818.0
Wiener process for Thermostat # 3        1 F T T  -2.7485675335982579E-01         482699311.0        2506409672.0        1202736307.0        1073196783.0        1141297417.0        2856513754.0        1015873554.0        1310354410.0        2249465273.0         994084013.0        2912484720.0        3876682925.0        1015873554.0        1310354410.0        2249465273.0         994084013.0        2912484720.0        3876682925.0
Wiener process for Thermostat # 4        1 F T T  -9.8957058820594379E-01        3129827523.0        3549124345.0        1353678049.0        1344233659.0        2578763699.0        1106953444.0        2338701263.0        1119171942.0        2570676563.0         317077452.0        3194180850.0         618832124.0        2338701263.0        1119171942.0        2570676563.0         317077452.0        3194180850.0         618832124.0
Wiener process for Thermostat # 5        1 F T T   8.1743834600370391E-01         587879607.0         702838090.0         820286405.0        1159088393.0        1840431053.0        2379049004.0        1597262096.0        3906379055.0        3312112953.0        1016013135.0        4099474108.0         275305423.0        1597262096.0        3906379055.0        3312112953.0        1016013135.0        4099474108.0         275305423.0
Wiener process for Thermostat # 6        1 F T T  -4.6635220676026440E-01        1255338812.0        2941627828.0        2767710176.0        1701464963.0        2824905014.0        2257709657.0          97147054.0        3131372450.0         829345164.0        3691032523.0        3006063034.0        4259826321.0          97147054.0        3131372450.0         829345164.0        3691032523.0        3006063034.0        4259826321.0
Wiener process for Thermostat # 7        1 F T T  -2.7221417990508723E-01        2928923925.0        1475590831.0        3028549759.0        1729569924.0         123262326.0        1965188850.0         796079799.0        2105258207.0         955365076.0        2923159030.0        4116632677.0        3067683584.0         796079799.0        2105258207.0         955365076.0        2923159030.0        4116632677.0        3067683584.0
Wiener process for Thermostat # 8        1 F T T  -1.3371509559371584E+00        3293786404.0        2324351260.0        4224364702.0        1341956089.0         912321799.0        2697559406.0        3281794178.0        2616230133.0        1457051261.0        2762791137.0        2480527362.0        2282316169.0        3281794178.0        2616230133.0        1457051261.0        2762791137.0        2480527362.0        2282316169.0
Wiener process for Thermostat # 9        1 F T T  -8.7225140957356684E-01         657961678.0        1513147170.0        2219186603.0        4111646695.0         616753226.0        2747528653.0        3777646647.0        1837464056.0        4204654757.0         664239048.0        4190510072.0        2959195122.0        3777646647.0        1837464056.0        4204654757.0         664239048.0        4190510072.0        2959195122.0
Wiener process for Thermostat # 10       1 F T T  -6.2889449580622436E-01          96284293.0        2446379684.0        3801610533.0        2961863039.0        1877110468.0         129512113.0        4215590817.0        3862461878.0        1087200967.0        1544910132.0         936383720.0        1611370123.0        4215590817.0        3862461878.0        1087200967.0        1544910132.0         936383720.0        1611370123.0
Wiener process for Thermostat # 11       1 F T T   5.7191327297384098E-01         909895394.0        1862319182.0        2400367466.0        1201802882.0        2818881371.0          83822050.0        1683636369.0         362165168.0         814316280.0         869382050.0         980203903.0        2062101717.0        1683636369.0         362165168.0         814316280.0         869382050.0         980203903.0        2062101717.0
Wiener process for Thermostat # 12       1 F T T  -2.0098512161557830E-01        4281566709.0        2729512869.0         275332126.0         437149450.0        1041778670.0        1778805263.0         272317999.0         166758548.0         310112982.0         201045826.0        1680231254.0         118290799.0         272317999.0         166758548.0         310112982.0         201045826.0        1680231254.0         118290799.0
Wiener process for Thermostat # 13       1 F T T   9.4560796151122029E-01        3557498645.0        2583014714.0        2425630516.0         920535172.0        3770643442.0         978988578.0        2245755202.0        1652682525.0        2865544364.0         721509566.0         209733568.0         592362218.0        2245755202.0        1652682525.0        2865544364.0         721509566.0         209733568.0         592362218.0