 # Version information for this restart file 
 # current date 2024-11-26 20:56:42.097
 # current working dir /scratch/work/courses/CHEM-GA-2671-2024fa/students/hh2635/comp-lab-class-2024/Week12-IntroAIMD/runs_proton
 # Program compiled at                              Sat Dec 12 18:27:15 EST 2020
 # Program compiled on                                         cs001.nyu.cluster
 # Program compiled for                                                nyu-intel
 # Source code revision number                                       git:8c64c6e
 &GLOBAL
   PRINT_LEVEL  LOW
   PROJECT_NAME proton_aimd_1ns_every0.5fs
   RUN_TYPE  MD
   WALLTIME 21600
 &END GLOBAL
 &MOTION
   &GEO_OPT
     OPTIMIZER  BFGS
     MAX_ITER  100
     MAX_DR     3.0000000000000001E-03
     &BFGS
     &END BFGS
   &END GEO_OPT
   &MD
     ENSEMBLE  NVT
     STEPS  2000
     TIMESTEP     4.9999999999999994E-01
     STEP_START_VAL  1500
     TIME_START_VAL     7.5000000000000762E+02
     ECONS_START_VAL    -1.1027144142478624E+03
     TEMPERATURE     3.0000000000000000E+02
     &THERMOSTAT
       TYPE  GLE
       REGION  MASSIVE
       &GLE
         NDIM  5
         A_SCALE     1.0000000000000000E+00
         A_LIST     1.8595758612559999E+02    2.7263853498399998E-01    1.1526100454610001E+01   -3.6414578262600003E+01 \
             2.3173375816020001E+02
         A_LIST    -2.7809524712060002E-01    8.5951591808710006E-05    7.2189048017650004E-01   -1.9844539343859999E-01 \
             4.2409257583420001E-01
         A_LIST    -1.4825808131210000E+01   -7.2189048017650004E-01    1.3590902121280000E+00    5.1498896280349999E+00 \
            -9.9949268450990001E+00
         A_LIST    -1.0372189126880000E+01    1.9844539343859999E-01   -5.1498896280349999E+00    2.6661910891169999E+01 \
             1.1507715495310000E+01
         A_LIST     2.1801346360420001E+02   -4.2409257583420001E-01    9.9949268450990001E+00   -1.1507715495310000E+01 \
             3.0958394565589998E+02
         &THERMOSTAT_ENERGY
               6.3518335166384381E-03
              -2.4019263000681205E-03
               4.3830694431380994E-04
               5.0869115227188321E-03
              -1.6930627397787560E-02
               5.7943594294729121E-04
              -1.3806506658685382E-03
              -4.8529906900517047E-03
               1.0858375218894090E-02
               4.5935823110188111E-03
               3.9141575438045202E-03
              -4.5869163542760051E-03
               1.8951108562993741E-03
              -1.2843607200548529E-02
               8.4235309184233741E-03
              -6.9331119915697296E-03
               6.1565232663115541E-03
              -2.8113281736326713E-03
              -8.9525714877362298E-04
              -1.0839677306401078E-03
               6.9342194932528467E-04
               3.3602765859654894E-03
              -9.1519842681787641E-03
               1.7023386513219975E-03
               3.1741182573684910E-04
              -3.0632007638872923E-03
               2.3089050079378977E-03
               2.8981404848269646E-03
               7.8894897066695575E-03
               3.5636243821123171E-03
              -4.5942349487662053E-03
              -3.2497231665387675E-03
               5.4200394538243190E-03
               3.3219178065739380E-03
              -1.5858545208720366E-02
               1.9014892686671957E-02
              -2.2300419371449275E-03
              -4.0906628502047279E-03
               9.8718457513068732E-04
              -2.2203325100122254E-03
               5.4637865976127449E-03
              -7.7509102505321330E-03
               9.3038578525877422E-03
               6.1041688130556177E-03
              -2.2632000413044793E-03
              -3.8728941038566377E-03
              -3.9742738262882162E-03
               5.4465832563778821E-03
              -2.0549839356568378E-03
               7.8204518313489749E-03
              -4.1094525490618025E-03
              -3.4733122646569891E-03
              -6.0499965739967201E-03
               2.1176631756126703E-05
              -8.2406281728205095E-03
               7.7440340494946448E-03
              -2.3288575630258258E-03
               6.6053567309722581E-05
               1.9549008837788191E-03
               5.2271724236365672E-03
              -8.8496197823499396E-03
              -1.6996555008191704E-03
               1.7167146599024772E-02
              -1.6765251063727026E-03
               4.5484111942423657E-03
               2.6162589931928841E-03
              -7.4523090010276873E-03
               3.5249621256447060E-03
               8.0345063646556272E-03
              -1.8149343874411638E-03
              -2.3013837882262323E-03
              -7.1380470172485817E-03
              -3.6635244475396282E-03
               6.7484479683347623E-04
               8.2342584443831845E-04
              -9.4446719519359675E-03
               2.1674873574021643E-02
               5.0014976678891087E-04
               5.1837770866117287E-03
              -3.8065125241323379E-04
              -7.9075418601338449E-03
              -4.7866009611618205E-03
               2.1493135396934643E-03
              -6.9174839745860276E-04
               6.7493876872553741E-03
               1.6201111655245373E-03
               6.3402142196450589E-04
              -1.9949872528300552E-03
               7.7759035058820088E-03
              -3.5891150860699532E-03
               1.7709136898064442E-04
              -4.3039171084336509E-03
               4.5912124879986266E-03
              -1.5090265083924012E-03
              -1.5563605336411138E-02
               7.2510748867191284E-03
               4.1923417318958170E-03
              -3.0702967224731153E-03
               4.9971429961643502E-03
               2.0040797928881728E-03
               6.3234562275183079E-03
              -2.6508664145399301E-03
               1.7454945169063812E-03
               2.0898049021113963E-02
               9.7188947841459986E-03
               2.3336411670694578E-02
               4.2468677434183344E-03
               1.2919027077806806E-02
               5.0458420210396926E-03
              -4.6918009562374402E-03
              -5.2104379255206901E-04
              -8.6495267791353531E-04
               5.6842826375308308E-03
               5.5661524375079322E-03
               4.6306977593077283E-03
              -2.6638615431815588E-03
              -8.6035936170939988E-03
               1.3172963157555976E-03
               5.4574521108342999E-03
               9.1245973421518823E-04
              -2.5934916426069311E-03
               2.3804288845847643E-04
               3.3400346503797470E-03
               1.4165010173613083E-02
              -7.1351334783533111E-03
              -1.4746305955087581E-02
               9.6490803678427901E-03
              -4.9877558858934931E-03
               2.3715039596398642E-03
              -7.6022862745423062E-03
              -6.5795097183939779E-03
               6.1245314965566958E-03
               6.0554566633212580E-03
               2.3779747149478615E-03
              -1.1768517163350729E-03
               2.4284733767120092E-03
              -1.1721095223423072E-03
              -6.3587341175254204E-03
              -5.3932387193212855E-03
              -7.7481419065707101E-03
               1.5863933120687176E-03
               6.1578373635385953E-03
               1.0401589096559105E-02
              -5.9208236595486800E-03
              -1.5792590095233339E-03
              -3.9863170258910216E-03
               7.1233366052176686E-03
              -4.8904108139595330E-03
               3.8028548585777064E-03
               1.1456860853519874E-02
              -1.1165536718579930E-02
               3.9412360055552393E-03
               1.7833667103136393E-03
              -4.2684866904470361E-04
               3.7541312651120646E-03
               3.2812924483556698E-03
              -1.3350227272754770E-03
              -5.4160756838275755E-03
              -3.0985630808891954E-03
               3.3003908912814461E-04
               9.9405269818861573E-03
              -9.6926846670433210E-04
               1.8614999039567648E-05
               3.1241790543062265E-03
               6.4457567188311226E-03
               2.2891705945000215E-02
               3.0687094912911594E-03
              -1.4764296565334106E-02
              -4.4035892965413256E-03
               8.1511993630806242E-03
              -5.1666575622694418E-03
               7.3331500362170355E-03
               5.0578576020294738E-06
               1.2451069874629865E-03
              -5.9428485475367457E-03
               1.8441755639285577E-02
              -1.1757138510575166E-02
              -2.2715807468627900E-03
              -1.4246508596429733E-02
               1.4934642325220673E-02
               1.8656454937996951E-03
              -5.7548727991751092E-03
               1.5532862177938221E-03
              -1.2616290302777309E-02
               1.0188041150434923E-02
               1.7148854987442061E-03
              -8.0079656612651214E-03
               1.6921038646885021E-03
              -1.2901535156291302E-05
               2.4570749485911987E-03
               2.9657107745398878E-03
              -3.0273692358747952E-03
               1.2867418966568849E-03
               8.7622695328974289E-03
               2.0018441740313970E-03
              -1.9662947674784744E-03
              -7.6827191529092662E-03
               5.8891642885929903E-03
               1.1791013372259545E-03
               6.5008921482615227E-04
               2.1861447934824578E-03
              -6.9371212183981894E-03
               6.2779254022360285E-03
               3.2457003915997351E-03
              -7.6503922989737720E-04
               5.4098450522932729E-03
              -6.1833284373791677E-03
               3.5577170517076036E-03
               2.0250305614050649E-03
              -4.0716682577729580E-03
               2.9009008409724493E-03
              -5.3116113846318298E-03
               1.1346779516609099E-02
              -3.4077325497090822E-03
               3.5288987938621170E-03
               8.6247726353948177E-03
              -1.0586690431188578E-03
               3.8709881473824896E-03
              -3.5827280215194792E-03
              -5.8090052311214578E-03
               1.1896694652506164E-03
              -9.8396684308056370E-03
              -2.7782435480167358E-03
               4.0284060262582291E-03
               1.1992019913433901E-02
               6.9282466854746483E-03
              -5.2417429757141355E-04
               3.8550108329896255E-03
               7.9068954429113696E-03
               8.6997972880081928E-04
              -6.3315764065542705E-03
               4.9629076062681849E-03
              -2.0242228431674985E-03
               1.6118690660458981E-04
               4.2264047799529594E-03
              -2.6848333299957271E-03
              -6.1318376389655246E-04
              -5.7261307594316056E-03
               2.3909140129082394E-06
               1.3630486936411419E-03
               7.6428322046554094E-03
              -1.5195689455690330E-03
               1.0118859739186564E-02
              -1.5988901604674997E-03
               2.9194283721339634E-03
               1.1547192245272642E-03
               1.0551996636700841E-03
               3.8536092436508105E-03
              -3.3407988647489923E-03
              -1.0813792504066238E-03
               7.1106615968761083E-03
              -7.3126861877367815E-03
              -1.1994237135349181E-02
              -6.2744847569681742E-03
               5.0484293923887388E-03
              -4.8113729472934871E-03
               1.5606597459123659E-02
              -1.2971133583267437E-02
               4.8331620457082152E-03
              -1.3988981836633463E-02
               8.1030202070032486E-03
               9.9497426943587815E-03
               3.2118455029341735E-02
               1.2122642531590068E-02
               8.1516155503383986E-04
               4.1207102587150664E-03
               3.4234929287370250E-03
              -3.7407605219013998E-03
              -6.0157700216242997E-03
               1.0137387642203573E-02
              -5.3492828320529156E-03
              -3.0441194066068936E-03
               6.1484141637829651E-03
              -2.2399214987643737E-03
               5.1249133198885584E-03
              -3.2980294891113851E-03
              -1.3049934577682113E-02
               1.0596302463423423E-02
               4.6619000164798844E-03
               2.7391116876084791E-03
              -4.7885519460541693E-03
              -4.8187614852501816E-03
               1.7175521793993849E-03
              -4.8947844618555845E-04
               9.1499137639224244E-03
               4.6916874262266841E-03
              -6.0019982456266576E-03
               2.3635426289763456E-03
              -1.7353175329174957E-02
               3.5699344534131892E-03
               9.0945605406910403E-03
               3.3337937043223292E-04
              -3.0892490537666913E-03
              -2.4464917808814765E-03
               6.1573465344172233E-03
               4.2712830436211231E-03
              -1.7201898969403235E-02
               7.2487556227645135E-03
               1.4588852984246826E-02
              -1.3462059704105698E-02
               2.5132213304258893E-03
              -9.7509633059096688E-04
               3.7262943422313268E-03
               1.2288298991897623E-02
               4.4078167094897103E-06
              -8.2530280598885879E-03
               9.2787770517925323E-04
              -5.8611831842553062E-03
               1.1963692855322236E-02
               1.0193570385922120E-02
               1.9030942033233188E-03
              -5.0417390518089108E-04
               1.0106840794173212E-03
              -1.8605334212375734E-03
               3.5552326717037028E-03
              -1.7811736310286781E-03
              -4.4392283883113205E-03
              -1.5948732831466536E-03
              -1.0600673603390133E-02
              -6.5931022773742260E-03
              -8.1936111557909339E-04
               1.7076465595185011E-03
               1.4562631117187718E-03
               7.1332218826039451E-03
              -5.6739775270083651E-03
               6.3995722629817391E-04
               7.7255594799866909E-03
              -1.8830159474313225E-03
               3.2371943099232037E-04
               5.2335056035549248E-04
              -4.0788941698958374E-03
               3.8659750696059441E-03
               3.2108456465321650E-03
              -3.6921110138308888E-03
               4.4619320753954946E-03
              -2.0549288349766409E-03
               5.5031368114279670E-03
              -2.2272001346134275E-03
               4.5029419015753448E-04
               1.0125390846310095E-02
              -1.0202499792303052E-02
              -3.4934896680192343E-03
               4.7910183129016683E-03
              -4.5099906518979846E-03
               3.8678727190199534E-03
               6.8880598675431113E-03
               1.4652804558011503E-03
              -7.0751322541881519E-03
               1.3168723407031827E-02
              -1.3351382004155041E-03
              -8.3311670906490495E-03
              -1.1571132703251607E-03
              -1.0964906206152496E-02
               3.7843235816561092E-03
               4.4145482662807144E-03
              -3.4593583580204233E-03
               2.3586509055449358E-03
              -2.4580628171604348E-03
              -1.8106384625213323E-04
              -4.7594362318783305E-03
               2.0203793510872979E-05
               2.8437419444473895E-03
               7.0488709582839943E-03
              -2.1514758612396676E-03
              -5.8778189327813946E-03
               4.1148835440775224E-03
               4.7273931086315533E-03
               6.6538187415405830E-03
              -1.3396103935639829E-02
               2.4823501068087952E-03
              -4.4688978189828636E-03
              -1.4157455564228975E-03
              -1.0527349095296925E-03
              -1.8887533758758692E-03
               3.3338106160522873E-04
               5.9108556705016477E-03
              -7.8617323284190417E-03
              -1.2518471507470645E-02
               7.9007531796467174E-04
               9.3060926815178198E-03
               4.2722143658983922E-03
               2.6086452678159965E-03
               4.0062504602463560E-03
               3.5137441219950245E-04
              -2.3508819662176387E-02
              -1.5236936315563706E-03
               8.4292482847515577E-03
               5.8680412897316094E-04
               6.7995902538562757E-03
              -3.8617900483946576E-03
              -4.0103447901483642E-03
               3.2714788806011692E-03
              -2.4317399448635629E-03
              -1.0595077337623344E-03
               8.2143200160482623E-03
              -1.0505864559439927E-03
              -8.4370833135157652E-03
               1.8792993044109848E-03
               6.9248221776314553E-03
              -3.7304530494269598E-03
               3.2002507704736397E-04
               7.0133185899972578E-03
              -2.2495205493256103E-03
              -5.2299760401866673E-03
              -7.7663170786491861E-03
               7.2327552041201388E-03
              -4.4357667745201505E-04
              -3.0704879961283744E-03
              -3.2031051963660065E-04
               3.5862365287701644E-03
               1.5993513667679432E-03
              -6.9637037196461772E-04
               8.4011529410441964E-04
              -3.4813683566429754E-03
               2.8240562533053850E-03
               3.8086873679377981E-03
               1.4440946457902931E-03
               6.5561910469679732E-04
               3.6201397021587041E-03
              -4.3462586800597608E-04
               4.4415678097411756E-03
              -9.3675243047163838E-04
              -4.5098712186212138E-04
              -4.2087998161687516E-03
               1.2635003249318892E-02
              -3.6176840293957431E-03
               2.6300969561039757E-03
              -4.1891772162541332E-03
               1.1061619494879167E-03
              -6.4414636043898786E-04
              -7.3510766124975958E-03
              -1.1577338102262901E-02
              -1.8678016503849131E-02
               6.4064281962885068E-03
               1.6106079100934874E-02
              -2.8053386870409587E-04
              -5.8155896768280401E-03
              -2.5803002265540405E-03
               1.4667574173159094E-04
               8.3045470814812634E-03
               1.2402745270155761E-03
              -4.0200035452980865E-03
               5.0847071149602628E-04
               7.6302875008604351E-03
              -1.3881039602496000E-03
               5.5909675476491123E-03
               7.0686646982471447E-03
               1.1132301905422482E-02
               5.3401205822542633E-03
              -1.3569096472282927E-02
              -1.9176236196273555E-04
              -6.5049385813409450E-03
              -1.8663794713884153E-03
              -3.8333405713898282E-04
              -2.3320543048779528E-03
              -2.5063936139725698E-03
              -1.6926784985865782E-02
              -9.8359890364979798E-03
               1.0946292957095141E-03
               7.2251742134960585E-03
               1.5807576961644764E-02
              -3.6425040478633031E-04
               6.4492984482380773E-04
               4.1935520099518862E-03
               9.4102950388199203E-03
              -3.5569660442627408E-04
              -8.2449244411250556E-03
              -4.0437684353965345E-03
               1.2711914400147887E-02
              -5.4759346660427791E-03
              -4.0116464751787815E-03
              -3.1563593339275380E-03
               9.5458422134971268E-03
               4.8381687874065552E-04
               2.5749194741264692E-03
               4.0795850603565090E-03
              -3.3317347880795971E-03
               5.3714617440585302E-03
              -2.2976751885830089E-03
               1.2841221022038031E-03
               2.9358469358541370E-03
              -4.6396308803150349E-03
               8.7507869675728222E-03
               4.8291203043016187E-03
               3.5966341705899168E-03
              -7.1664135863788194E-05
              -5.0099505972015122E-03
              -6.7123188584111478E-03
               6.5043838974503752E-03
              -6.1381402608535742E-03
               7.9755680579948647E-03
               6.0312048319973279E-03
              -1.5577000386702623E-05
               1.7116810222057904E-03
               7.6436542840685774E-03
              -1.1716759361461391E-02
               1.1492135685072232E-04
               3.9919660840386359E-03
               4.2185358423386691E-03
               6.3707733348234491E-03
               1.9925026211946445E-03
               5.0507872196673331E-03
              -9.5586648235540597E-03
               1.2815399205075085E-02
              -4.6094522799763841E-03
              -5.7051991488771018E-03
              -6.1391882257587410E-03
              -2.2583586462980964E-03
               2.8408127938862201E-03
              -7.3938581490166401E-04
              -2.6235172419162133E-03
               3.5787807193855517E-03
              -1.0734949569427862E-03
              -5.5042413492043026E-03
               5.2907679074681389E-03
              -7.9165811124561718E-03
              -9.5780744637430065E-03
               4.2877039064693990E-03
               2.3404218435142863E-03
               2.3721710456082227E-03
              -1.1725577030657913E-02
               4.4273390870495687E-03
              -6.8778415564686474E-04
               1.3474862016613438E-03
              -2.8001522638317240E-03
               1.9532994721397240E-04
              -7.0390010391920008E-03
              -2.1468137989531589E-03
              -1.8488961115182580E-03
               5.4381856958284904E-04
               6.6802346789961598E-03
               2.6419585705727039E-03
              -6.7664320970854640E-03
              -5.5135943475930925E-03
              -2.3211044311247488E-03
              -2.0635838878556713E-03
               7.4332496107258682E-04
              -1.1910350566134722E-03
               5.1126026317433173E-03
              -4.1450207594155358E-03
              -9.6856757315423689E-04
              -6.8636180603045248E-04
              -5.4464895650251999E-03
              -1.1820198018497935E-03
               5.1582558056911358E-03
              -4.8256915220184311E-04
               4.7262175314097205E-03
              -8.0885062457507640E-03
               5.2585496633859186E-03
               1.1330043594453584E-03
              -5.1347356579275368E-03
               5.1987613747564582E-03
               1.0571926875623280E-03
              -4.7488789655197334E-03
               3.5283788399907740E-03
              -1.1340078719804273E-03
               1.3841651772622679E-03
              -1.7881871993375444E-03
               8.2517676284535220E-03
               5.4899126187519303E-03
               3.7945365479148808E-03
               6.5017956718779572E-03
              -9.1148301204364141E-04
              -3.5490669245672448E-03
               2.0784688917270392E-04
               1.0616515321713852E-02
              -1.1181644138277633E-02
              -1.9729341604943408E-04
               7.7349705997478407E-03
              -4.2659649054765814E-03
               1.9543905994507615E-03
              -1.7185414030060815E-03
              -2.3158710524459718E-03
              -1.4351515996207691E-02
               6.8871184392195325E-03
               1.8181505813132694E-03
               1.3966735717174827E-02
               2.1519270198778551E-03
              -1.0530549463181290E-02
         &END THERMOSTAT_ENERGY
         &RNG_INIT
Wiener process for Thermostat # 1        1 F T T   1.0570193072987602E-01        2554248455.0        3733268398.0        2096963647.0         915983833.0        1292997779.0         989563289.0             12345.0             12345.0             12345.0             12345.0             12345.0             12345.0             12345.0             12345.0             12345.0             12345.0             12345.0             12345.0
Wiener process for Thermostat # 2        1 F T T  -5.0729818522276993E-01         187792199.0        1332764939.0        1272087322.0         282682701.0         988697858.0        4086000388.0        3692455944.0        1366884236.0        2968912127.0         335948734.0        4161675175.0         475798818.0        3692455944.0        1366884236.0        2968912127.0         335948734.0        4161675175.0         475798818.0
Wiener process for Thermostat # 3        1 F T T   8.9774137220556466E-02        3755061031.0        1753083868.0        1351179932.0         343881147.0        3312142877.0        1244557929.0        1015873554.0        1310354410.0        2249465273.0         994084013.0        2912484720.0        3876682925.0        1015873554.0        1310354410.0        2249465273.0         994084013.0        2912484720.0        3876682925.0
Wiener process for Thermostat # 4        1 F T T   2.1447125495896904E-01        2430503636.0         902227617.0        3039217662.0         205693714.0        2375800914.0        4220709598.0        2338701263.0        1119171942.0        2570676563.0         317077452.0        3194180850.0         618832124.0        2338701263.0        1119171942.0        2570676563.0         317077452.0        3194180850.0         618832124.0
Wiener process for Thermostat # 5        1 F T T  -7.4974817695318574E-01        3949927612.0        4293465109.0         224208328.0         677588237.0        2173092809.0        2514687022.0        1597262096.0        3906379055.0        3312112953.0        1016013135.0        4099474108.0         275305423.0        1597262096.0        3906379055.0        3312112953.0        1016013135.0        4099474108.0         275305423.0
Wiener process for Thermostat # 6        1 F T T  -2.3195632299180402E+00        4147399821.0         968438491.0         174961265.0         382156541.0        3672303660.0        2385050302.0          97147054.0        3131372450.0         829345164.0        3691032523.0        3006063034.0        4259826321.0          97147054.0        3131372450.0         829345164.0        3691032523.0        3006063034.0        4259826321.0
Wiener process for Thermostat # 7        1 F T T  -8.3038096976097500E-03        3725962017.0        3124905816.0        1692649901.0        3685368087.0         990134651.0        3321809881.0         796079799.0        2105258207.0         955365076.0        2923159030.0        4116632677.0        3067683584.0         796079799.0        2105258207.0         955365076.0        2923159030.0        4116632677.0        3067683584.0
Wiener process for Thermostat # 8        1 F T T   7.2955713326517235E-01        1426374835.0        1022225665.0        3431852557.0        2945126969.0        1347790872.0        2047858768.0        3281794178.0        2616230133.0        1457051261.0        2762791137.0        2480527362.0        2282316169.0        3281794178.0        2616230133.0        1457051261.0        2762791137.0        2480527362.0        2282316169.0
Wiener process for Thermostat # 9        1 F T T  -8.3876742673612970E-01        3633457436.0         863053678.0         665967915.0         928783000.0        4027924725.0        3556250224.0        3777646647.0        1837464056.0        4204654757.0         664239048.0        4190510072.0        2959195122.0        3777646647.0        1837464056.0        4204654757.0         664239048.0        4190510072.0        2959195122.0
Wiener process for Thermostat # 10       1 F T T  -6.7138423863751628E-01        3282585865.0         909372753.0         488063086.0        2442536289.0         174422437.0         477575080.0        4215590817.0        3862461878.0        1087200967.0        1544910132.0         936383720.0        1611370123.0        4215590817.0        3862461878.0        1087200967.0        1544910132.0         936383720.0        1611370123.0
Wiener process for Thermostat # 11       1 F T T  -7.2169956836733329E-02        3039538231.0          25912629.0        1608189467.0        1823124278.0        2331127605.0        2449500504.0        1683636369.0         362165168.0         814316280.0         869382050.0         980203903.0        2062101717.0        1683636369.0         362165168.0         814316280.0         869382050.0         980203903.0        2062101717.0
Wiener process for Thermostat # 12       1 F T T  -6.7722400494670465E-01        2762226669.0        4262778377.0        2250707948.0        3120407528.0        3704866228.0        1185520965.0         272317999.0         166758548.0         310112982.0         201045826.0        1680231254.0         118290799.0         272317999.0         166758548.0         310112982.0         201045826.0        1680231254.0         118290799.0
Wiener process for Thermostat # 13       1 F T T  -7.3817531449270457E-01        3689403510.0         367299738.0        3636386471.0        1925893934.0        3355800516.0        3520562622.0        2245755202.0        1652682525.0        2865544364.0         721509566.0         209733568.0         592362218.0        2245755202.0        1652682525.0        2865544364.0         721509566.0         209733568.0         592362218.0