 # Version information for this restart file 
 # current date 2024-11-26 21:57:56.115
 # current working dir /scratch/work/courses/CHEM-GA-2671-2024fa/students/hh2635/comp-lab-class-2024/Week12-IntroAIMD/runs_proton
 # Program compiled at                              Sat Dec 12 18:27:15 EST 2020
 # Program compiled on                                         cs001.nyu.cluster
 # Program compiled for                                                nyu-intel
 # Source code revision number                                       git:8c64c6e
 &GLOBAL
   PRINT_LEVEL  LOW
   PROJECT_NAME proton_aimd_1ns_every0.5fs
   RUN_TYPE  MD
   WALLTIME 21600
 &END GLOBAL
 &MOTION
   &GEO_OPT
     OPTIMIZER  BFGS
     MAX_ITER  100
     MAX_DR     3.0000000000000001E-03
     &BFGS
     &END BFGS
   &END GEO_OPT
   &MD
     ENSEMBLE  NVT
     STEPS  2000
     TIMESTEP     4.9999999999999994E-01
     STEP_START_VAL  2000
     TIME_START_VAL     9.9999999999998226E+02
     ECONS_START_VAL    -1.1027144142478624E+03
     TEMPERATURE     3.0000000000000000E+02
     &THERMOSTAT
       TYPE  GLE
       REGION  MASSIVE
       &GLE
         NDIM  5
         A_SCALE     1.0000000000000000E+00
         A_LIST     1.8595758612559999E+02    2.7263853498399998E-01    1.1526100454610001E+01   -3.6414578262600003E+01 \
             2.3173375816020001E+02
         A_LIST    -2.7809524712060002E-01    8.5951591808710006E-05    7.2189048017650004E-01   -1.9844539343859999E-01 \
             4.2409257583420001E-01
         A_LIST    -1.4825808131210000E+01   -7.2189048017650004E-01    1.3590902121280000E+00    5.1498896280349999E+00 \
            -9.9949268450990001E+00
         A_LIST    -1.0372189126880000E+01    1.9844539343859999E-01   -5.1498896280349999E+00    2.6661910891169999E+01 \
             1.1507715495310000E+01
         A_LIST     2.1801346360420001E+02   -4.2409257583420001E-01    9.9949268450990001E+00   -1.1507715495310000E+01 \
             3.0958394565589998E+02
         &THERMOSTAT_ENERGY
               6.2100279178158770E-03
              -1.9592235824846737E-03
              -1.5045039465538446E-03
               1.9960765984613719E-03
              -1.2176760424198834E-02
               5.3562629802315573E-04
              -1.5469769688477757E-03
              -1.6295821164543024E-03
               1.3910552739175209E-02
               4.8597223088746476E-03
               4.1308830217493377E-03
              -2.5328579125949496E-03
              -6.1401049663714676E-03
              -8.4011751922978047E-03
               6.3453060922484530E-03
              -1.1908108327622033E-02
               6.7513525184189210E-03
              -3.2867851602886890E-03
              -1.4193445071709534E-03
               5.7897758659536012E-04
               3.9720161731888180E-04
               5.1148506025283178E-03
              -1.1454953413388190E-02
              -1.8909170879578031E-03
               5.3245987788090796E-03
              -5.3211739724298331E-03
               2.6453577138329620E-03
               1.2918416044291376E-03
               5.5298928380492444E-03
               2.8327013979632712E-03
              -1.7161346161529692E-03
              -2.7336781261133808E-03
               4.7455091389027159E-03
               1.5251263682786193E-03
              -1.3357060055827281E-02
               1.2465862944490706E-02
              -2.0525756117458402E-03
              -4.1844476472560881E-03
               5.9503533601646785E-04
              -2.2968027569206331E-03
               4.9213312156945535E-03
              -1.3460674696811016E-02
               1.0839237715754589E-02
               5.2047973902855814E-03
               9.1805675514772657E-04
              -2.8168509712984224E-03
              -1.0758599107699289E-02
               9.2998135245589454E-03
              -1.1565037456868063E-03
               4.8352999925552441E-03
              -2.1771692742860657E-03
              -2.1624777287789217E-04
              -4.7304901684745487E-04
              -2.2014534717542844E-03
              -8.2218375093616076E-03
               7.3429583003124807E-03
              -3.5074738029656316E-03
              -3.4694083926109301E-03
               2.6827969008863212E-03
               5.0993054765147497E-03
              -6.7154571037439954E-03
               5.5582745296489265E-03
               1.5409186866930972E-02
              -6.2872664549777670E-03
               4.7929899902743114E-03
               2.9869021343724685E-03
              -6.6250269484797427E-03
               5.9683095607701358E-03
               8.1714397849882072E-03
              -1.2935435774036328E-02
              -4.1771333945399437E-03
              -1.4224548662662372E-03
              -3.4222042681139064E-03
              -2.6412945358147912E-03
              -2.2725858680892923E-04
              -1.1433636796130143E-02
               2.2910985342603524E-02
              -2.0164935598836948E-03
               6.3382211194895179E-03
              -6.0949333564846563E-03
              -1.9114552084477003E-03
              -9.3983967072050305E-03
               5.0334196405182391E-03
              -2.1587669276802845E-03
               6.9361965772886487E-03
               6.5285626147664711E-03
               7.4684653395855186E-04
              -1.2818432085780408E-02
               1.0675287979203828E-02
              -4.2572281010897365E-03
               9.2559521342190784E-04
              -7.3039246258154297E-03
               6.1507273124267094E-03
               2.5771298052063123E-03
              -1.5192848360087691E-02
               4.3488954274190257E-03
               1.4333482683046316E-03
               6.9757074454042422E-04
               2.8023866141436283E-03
              -1.6922978702422523E-03
               8.8482657271436328E-03
              -4.9779221709317836E-03
               6.6325552137634601E-03
               1.6762122890994151E-02
               1.1886795935765537E-02
               1.4431188370510170E-02
               9.5372756222117262E-03
               2.2072546522772265E-02
               4.1611151284176870E-03
              -7.7572367060391133E-03
               6.1603552154454039E-03
              -1.6302894626457074E-03
               6.4433846111759795E-03
               1.1668152484844119E-03
               3.0728867369693853E-04
              -3.2225212978830085E-03
              -1.0353303077084318E-02
              -2.7148604778486339E-03
               5.2808232692323504E-03
               2.0324306353438400E-03
              -4.3208706103228578E-04
              -1.3280198090129477E-03
               9.8119388039924933E-03
               1.4160749986179832E-02
              -1.0856658661239058E-02
              -1.6672090469658136E-02
               6.0818508389722126E-03
              -4.6346441665008871E-03
              -2.9411002253255008E-03
               3.6554794757734377E-03
              -1.8686695112540214E-03
               3.2237691369209434E-03
               5.4527288596399491E-03
               2.0591130856266716E-03
              -5.5795547078057734E-04
               3.9578364823838084E-03
               5.1033626705387324E-03
              -5.6171668200839294E-03
              -1.0882170795002219E-02
              -3.5835598331907508E-03
              -4.6460065505002238E-03
               5.1186050884034062E-03
               1.3496896288707512E-02
              -3.0183859038464492E-03
               8.2537700721300403E-04
              -9.1358834376578449E-03
               5.8322139779780381E-03
              -2.7742960334747918E-03
               8.0878046269475051E-04
               1.1932127006771796E-02
              -1.3107365511248933E-02
               5.0597332910169070E-03
               1.2289199913061532E-03
               2.3711175354511321E-03
               6.4121961316565591E-03
               4.7903492588594124E-03
              -7.2700868156729220E-04
               2.7205769268041908E-03
              -5.5728159281914456E-03
              -1.0298711189442823E-03
               2.1502464329128243E-03
               3.5509410019645598E-03
              -3.5024420528996687E-04
               7.7659749088124456E-03
               7.7552435258198740E-03
               2.5940118599252666E-02
               8.1900012284032327E-03
              -2.3264215127265817E-02
              -6.7303034796042395E-04
               2.6503064646409931E-03
              -2.9280837014225652E-03
               7.2680273767822632E-03
               1.6601596897808642E-03
               2.3350169943915023E-04
              -4.1814582719452761E-03
               1.9087465776192018E-02
              -1.2437945513374430E-02
               5.4841218939584878E-03
              -1.3858208019905768E-02
               9.3244066908542561E-03
               2.0082262934189407E-03
              -4.7952662533720753E-03
               1.3289934723450135E-03
              -1.0102500264514850E-02
               1.1488776700058437E-02
               1.2760477992624735E-03
              -1.4522296544311131E-02
               1.3354280340824847E-03
               1.6733035220056988E-03
               3.4409624443534307E-04
               4.0028966143079939E-03
              -2.8319388117498995E-03
              -4.1677462861623516E-03
               1.3691301113667608E-02
               1.8450178673831709E-03
               4.4836208161897037E-05
              -1.0225218977683243E-02
               6.4519842309923650E-03
               6.6146816613106704E-04
              -1.6255174845689962E-03
              -2.0568755509751549E-03
              -6.8089821113696972E-03
               8.8052559931397125E-03
               3.9599101578784695E-03
              -5.2993177350757516E-03
               6.9885905789440188E-03
              -3.6967397501355167E-03
              -2.2650309265884124E-04
               6.6438150392370476E-04
              -9.1287961247624410E-04
               3.7854286086192526E-03
              -5.6924712639603164E-03
               1.3949626332556036E-02
               6.5421028791042978E-04
               4.8959475786378845E-03
               9.6482828147755181E-04
              -5.2284109662449922E-03
               6.3860018969370000E-03
               4.8857400841138961E-04
              -5.2062943003486246E-03
              -1.1124359215099753E-04
              -1.0476117693028352E-02
              -8.6170847439455273E-03
               8.0671451871750545E-03
               1.3061072729069392E-02
               8.8846174539782777E-03
              -2.1375286825507807E-03
               3.1907425624761428E-03
               1.3181663514081367E-02
              -1.4038091344182872E-02
              -4.3042837311648907E-03
               2.3792744330766781E-03
               2.4839142255943898E-03
              -2.8765876538569450E-03
               8.5069474120194665E-04
               4.5944319699108074E-03
               9.6394785145507869E-04
              -7.7070588214705575E-03
              -2.3918319259265625E-03
               4.8005313969617927E-03
               8.3585443085615781E-03
              -2.9122104558040323E-03
               9.0904555318908325E-03
              -1.2505643788048393E-03
               4.9926170214036154E-03
               3.3740424161033305E-03
               3.1567999145025137E-03
               6.7514392197278728E-03
              -3.8989213692547649E-03
              -2.7323123014908642E-03
               5.6448371289749737E-03
              -1.1831490807636718E-02
              -1.1842713093657104E-02
              -1.8750389838777110E-03
               8.2058019245727278E-03
              -1.5456168667900105E-03
               1.8006074006842329E-02
              -1.3058364520313760E-02
               1.0128588601969206E-02
              -2.2370318627008313E-02
               7.4189444209962260E-03
               1.1017915502262148E-02
               2.7082798042743592E-02
               9.5325733911094859E-03
               3.0526770124558265E-03
               1.0703236482290596E-02
               3.5422864496519233E-03
              -2.0869022250956048E-03
              -6.2204037905092156E-03
               8.3780149047669623E-03
              -1.0761535557583754E-02
              -5.3680160630645126E-03
               5.4860885750638638E-03
              -1.0802057002627426E-03
               6.8224951519978609E-03
              -2.7472407581283689E-03
              -1.3697194025872887E-02
               9.0869441768066644E-03
               6.0082740771433241E-04
               9.1681174223590383E-03
              -1.0203838018817656E-02
              -5.6154050133769692E-03
              -6.5739665755821250E-03
               1.2186462059428057E-03
               8.6782524972619391E-03
              -4.2055936109342698E-03
              -1.2572468837349624E-04
               3.2336465166047535E-03
              -1.0494923106025527E-02
              -5.5493119326128972E-04
               7.0864847663429506E-03
               3.9540892800052363E-04
              -5.3699494873517533E-03
              -5.9929175935150509E-03
               1.4198232112804082E-02
              -5.3188689407036305E-03
              -1.7001355476406649E-02
               1.1601215652937971E-02
               1.4829765499886034E-02
              -1.0191580169759611E-02
               1.0650175571284759E-02
              -4.0040697455410367E-03
               5.4295996865747166E-03
               1.5522828517576748E-02
               2.6381598907037522E-03
              -9.1926117974101187E-03
              -1.4367484802387514E-03
              -1.8344120424597036E-03
               1.0428684927338026E-02
               9.4844090866981652E-03
               6.9819664928918014E-04
              -1.9982935494744026E-03
               9.6353673989119332E-04
               7.2974198057141498E-05
               2.3424762228965502E-03
              -8.3984971505088291E-04
              -3.2717620534502192E-03
              -5.0033385341385298E-03
              -1.3327557588190654E-02
              -9.1052985995908643E-03
               3.5223462667769829E-03
               4.7324227727379700E-03
               2.1312481375940270E-03
               9.5888753583316388E-03
              -7.3849403516209394E-03
               4.3536962383354198E-03
               1.0687144360555388E-02
              -3.0668230447961206E-04
              -4.9963021153606930E-04
               2.1348852497276734E-03
              -7.6050286251981769E-03
               2.7397717167027885E-03
               4.7285658781093644E-03
              -7.3569643493382230E-03
               1.3765419024647773E-02
              -4.1082415454688544E-03
               4.1018235056641383E-03
              -2.7994718261388362E-03
               3.0599569562847345E-03
               6.8844555429065299E-03
              -1.1397447701750288E-02
               5.0547030168932383E-03
               1.0401397250808629E-02
              -8.7703365364970760E-03
              -3.9409012792568218E-03
               4.8672818933800143E-03
               1.9696451914018626E-03
              -8.9372505205295334E-03
               2.1278849355183933E-02
              -8.8241218985252612E-04
              -9.5149910483885488E-03
               4.1864628275476556E-03
              -1.2631743212259443E-02
               3.2815150666990730E-03
               2.7736265331957631E-03
              -3.1648045338485606E-03
               3.8281354004750801E-03
              -4.0319466630812425E-03
              -5.4487383349111403E-03
               6.4678294523108281E-03
               3.3724007820812797E-03
              -2.9884415639679050E-03
               1.5785330608258395E-02
              -5.3753966860047306E-03
              -3.5954069893190726E-03
               2.2697871398047109E-03
               3.1342557879698767E-03
               3.5352758182708257E-03
              -9.8506631347640376E-03
               6.9110848795158079E-03
              -5.8603568888323243E-03
               1.3019886628479933E-03
               1.3265592302145271E-03
              -1.6786756329112392E-03
               1.5862751149706084E-03
               5.1903890351001044E-03
              -2.1298882867594789E-03
              -1.5087815066071545E-02
              -2.4257772256959081E-04
               8.9408749046828856E-03
               7.2174798061033253E-03
               3.0433318594824716E-03
               1.0019210560186960E-03
               3.0643309974100310E-03
              -2.1695472207340867E-02
              -8.8449512959134667E-04
               7.4724805515731119E-03
              -2.3470201904244666E-03
               9.7936588650933132E-03
              -4.8269315537285244E-03
              -4.5925164990585233E-03
               5.2708399493610458E-03
               2.3111223423153784E-03
              -2.7077426246814693E-03
               1.2771488186976408E-02
              -1.9845950293727556E-03
              -1.8534322699502058E-03
              -1.0210205501864208E-02
               1.1578239637082818E-02
              -2.3667512813568548E-03
               1.5412569501476283E-03
               7.4368638554311965E-03
               3.8801443345854157E-03
              -1.0143049334822751E-02
              -3.0837605589646958E-03
              -3.8652371591233539E-03
               5.9871339364646423E-04
               5.7103138601398576E-03
               1.3441305907147055E-03
               2.3673793434399798E-03
               3.1013400609621591E-03
               3.0506960177550196E-03
              -2.8381316041218240E-03
               3.5563151751530982E-03
               4.4375582357161795E-03
               2.6754466691417318E-03
              -3.0851801059076020E-03
               1.6845801548716665E-03
               3.6488688213935768E-03
              -3.5552307113937264E-03
               1.1118690428024896E-02
               2.3466454963325793E-03
              -2.0926597853511081E-03
              -4.8854590336592056E-03
               1.9243676984986240E-02
              -1.0651580874525866E-02
              -4.4884868220037479E-03
              -5.1914435568056654E-03
               5.3835770229143925E-04
               2.4307261043709310E-03
              -7.9474191027275581E-03
              -1.2518137805029401E-02
              -2.1606940813093140E-02
               1.4570071451320334E-02
               1.4381874297874665E-02
               1.4752309448468443E-03
              -7.3102448717640052E-03
              -3.4543456434208497E-03
              -7.2624488059825970E-04
               9.1265353513931731E-03
              -3.4750891700214794E-04
              -6.9632086098583871E-03
              -3.2177523761034027E-03
               1.0214595980702606E-02
              -1.2910459774561392E-03
               3.8994209273980262E-03
               1.0785233424474780E-03
               9.4734534383337041E-03
               1.1260355647278918E-02
              -8.1063615526998922E-03
              -4.8959273415378072E-03
              -1.1131022901671932E-02
               5.2149046882356666E-04
               1.1466733283248913E-03
              -5.3647253298129069E-04
               4.5557950629209962E-03
              -2.1466108768377012E-02
              -1.0454925332692726E-02
               3.4115464524608870E-03
               2.2162029343255432E-03
               1.5710451676943491E-02
               8.8932058884713151E-03
              -1.6567485637670732E-03
               7.2694258095950546E-03
               4.0661909809822068E-03
               7.4376736269426058E-04
              -7.6782040803216010E-03
               2.4408154256609009E-03
               1.3040846564658249E-02
              -9.6898082685011998E-03
              -4.0866034569010893E-03
              -4.7676299274856644E-03
               1.3310590864477202E-02
              -1.2275516224267266E-03
              -5.2069544547998755E-03
               6.6263707692079061E-03
               5.3327333158905187E-03
               5.8715936855880347E-03
              -3.6569472776204772E-03
              -1.1312858788642903E-03
              -6.1476474697606852E-04
              -3.5769136464790714E-03
               1.0293500590626812E-02
               3.9202506514135968E-03
               1.9702838607103114E-03
              -3.1892567820274624E-03
              -2.7114785611792929E-03
              -1.9711298631907271E-03
               1.1499264308671795E-02
              -1.3172681960609955E-03
               6.3310986434182504E-03
               8.9417791578641891E-03
               5.0544404634546803E-03
               3.4239312567542280E-03
               4.9933234136789470E-03
              -1.0756554955163256E-02
               4.4211325652350796E-03
              -9.5732530060663699E-04
               1.6678006837185474E-03
               6.3077568511152220E-03
               1.3771640402317651E-03
               3.9071381239305560E-03
              -1.2992393841335798E-02
               1.4961394274765265E-02
              -2.0447106894329074E-03
              -9.2004050931125177E-03
              -3.8124072332134731E-03
              -1.9224182298794427E-03
               3.5591966613611969E-03
              -3.2155237888891537E-03
              -3.8855621502026116E-03
               5.4262678169891736E-03
              -5.6677973805812406E-04
              -4.9884630836908635E-03
               2.8087820599732394E-04
              -8.9971482546498706E-03
              -7.2318070696219166E-03
               1.9039234287331151E-03
              -1.0240440810191005E-03
               6.8960858015363422E-03
              -9.8649867089136405E-03
               2.3121792507808884E-03
               2.8399050436348026E-03
               1.2387250298004405E-03
               3.3564192352134384E-04
               1.1698907831077944E-03
              -6.0306494605600683E-03
              -2.2967279534118965E-03
              -2.5948131166660276E-03
              -3.4808391465520252E-03
               1.6376457354418082E-02
               1.6863589242767022E-04
              -7.6599111405387240E-03
              -7.8622258932439029E-03
               2.0254110595944704E-04
              -1.9652938227761483E-03
              -7.5663513574991648E-04
              -2.8031339478118205E-03
               2.9472727312945877E-03
              -6.8089769446188315E-03
               1.6784275164584720E-03
               5.0902788248409266E-03
              -8.1175907514123742E-03
              -5.0823504691867314E-03
               7.0535205493651278E-03
              -3.8583962198631694E-03
               6.0200314102848698E-03
              -1.0567756299484365E-02
               2.5114762176927951E-03
               1.8243013381561333E-03
              -4.2365385808280972E-03
               2.9650897433404853E-03
               3.2634774658915882E-03
              -3.0587299031672247E-03
               1.6659540904545621E-03
               2.0203759957371382E-03
              -3.6986560664631833E-03
               4.2816653514421146E-03
               7.4734947486228033E-03
               6.5231831506937753E-03
               1.4615666310380223E-03
               9.8801716702965718E-03
               1.7282576532093165E-03
              -5.1921691733740494E-03
              -1.2903699276379738E-03
               1.3991508693393623E-02
              -7.2521292273489942E-03
              -6.9820736343804946E-05
              -2.3204969987423289E-03
              -1.6872241186634894E-03
              -3.7942874680048089E-03
               7.6966111271316263E-04
              -4.5196055100093988E-03
              -7.3341435555653728E-03
               3.1142931304139580E-03
               6.8090853494143589E-03
               1.2642937932697444E-02
               1.5459276320189004E-03
              -9.4105014793543895E-03
         &END THERMOSTAT_ENERGY
         &RNG_INIT
Wiener process for Thermostat # 1        1 F T T  -4.3866331554119464E-01        3463026290.0         996283881.0        3077134961.0        1575188103.0         352198642.0        1255594993.0             12345.0             12345.0             12345.0             12345.0             12345.0             12345.0             12345.0             12345.0             12345.0             12345.0             12345.0             12345.0
Wiener process for Thermostat # 2        1 F T T   6.1664168869435698E-01         581397078.0        3867423482.0         327967633.0        1486938113.0          26429212.0        4093174459.0        3692455944.0        1366884236.0        2968912127.0         335948734.0        4161675175.0         475798818.0        3692455944.0        1366884236.0        2968912127.0         335948734.0        4161675175.0         475798818.0
Wiener process for Thermostat # 3        1 F T T   2.0518696979926636E+00        1062843694.0        3278483557.0        2630284801.0         342499437.0         508306288.0         570022504.0        1015873554.0        1310354410.0        2249465273.0         994084013.0        2912484720.0        3876682925.0        1015873554.0        1310354410.0        2249465273.0         994084013.0        2912484720.0        3876682925.0
Wiener process for Thermostat # 4        1 F T T   8.6483655468840070E-01         858988242.0         878260951.0        1341305949.0        1687735708.0        1261279903.0        1615458589.0        2338701263.0        1119171942.0        2570676563.0         317077452.0        3194180850.0         618832124.0        2338701263.0        1119171942.0        2570676563.0         317077452.0        3194180850.0         618832124.0
Wiener process for Thermostat # 5        1 F T T  -7.2623034709222295E-02        3503246388.0        3640749438.0          80160185.0        4050541932.0        1809135917.0         826251710.0        1597262096.0        3906379055.0        3312112953.0        1016013135.0        4099474108.0         275305423.0        1597262096.0        3906379055.0        3312112953.0        1016013135.0        4099474108.0         275305423.0
Wiener process for Thermostat # 6        1 F T T   2.6094790259997280E+00        1648662560.0         298744963.0         276080774.0        3452610735.0        2129471280.0        4132861437.0          97147054.0        3131372450.0         829345164.0        3691032523.0        3006063034.0        4259826321.0          97147054.0        3131372450.0         829345164.0        3691032523.0        3006063034.0        4259826321.0
Wiener process for Thermostat # 7        1 F T T   1.3118545096244869E+00        4025695046.0        1027992126.0        3217973651.0        2155997853.0        1780084567.0        1907814450.0         796079799.0        2105258207.0         955365076.0        2923159030.0        4116632677.0        3067683584.0         796079799.0        2105258207.0         955365076.0        2923159030.0        4116632677.0        3067683584.0
Wiener process for Thermostat # 8        1 F T T   7.1524753302764935E-02        2631328646.0          66904958.0        3191287979.0        3452779318.0        2048731614.0        3759050068.0        3281794178.0        2616230133.0        1457051261.0        2762791137.0        2480527362.0        2282316169.0        3281794178.0        2616230133.0        1457051261.0        2762791137.0        2480527362.0        2282316169.0
Wiener process for Thermostat # 9        1 F T T  -1.0980465140389938E-01        1977246253.0        1903248984.0        3508262652.0        2466127224.0         300284070.0         767034957.0        3777646647.0        1837464056.0        4204654757.0         664239048.0        4190510072.0        2959195122.0        3777646647.0        1837464056.0        4204654757.0         664239048.0        4190510072.0        2959195122.0
Wiener process for Thermostat # 10       1 F T T   1.9081094228418396E+00         405211316.0        3215252316.0        3029076279.0        3899943421.0         886526099.0         586515832.0        4215590817.0        3862461878.0        1087200967.0        1544910132.0         936383720.0        1611370123.0        4215590817.0        3862461878.0        1087200967.0        1544910132.0         936383720.0        1611370123.0
Wiener process for Thermostat # 11       1 F T T  -5.3344054384789541E-01        3450000619.0        1059116059.0        3916567347.0         635813254.0        3901690603.0        3696418470.0        1683636369.0         362165168.0         814316280.0         869382050.0         980203903.0        2062101717.0        1683636369.0         362165168.0         814316280.0         869382050.0         980203903.0        2062101717.0
Wiener process for Thermostat # 12       1 F T T   8.9448207812820613E-01        1696219248.0        1783691089.0        1685873716.0        1285524479.0        2726140602.0        4269630803.0         272317999.0         166758548.0         310112982.0         201045826.0        1680231254.0         118290799.0         272317999.0         166758548.0         310112982.0         201045826.0        1680231254.0         118290799.0
Wiener process for Thermostat # 13       1 F T T  -1.0297203341400047E+00        4019568919.0        3484227797.0         947541978.0        4224885921.0        2127446270.0         502669027.0        2245755202.0        1652682525.0        2865544364.0         721509566.0         209733568.0         592362218.0        2245755202.0        1652682525.0        2865544364.0         721509566.0         209733568.0         592362218.0