 # Version information for this restart file 
 # current date 2024-11-26 18:56:20.048
 # current working dir /scratch/work/courses/CHEM-GA-2671-2024fa/students/hh2635/comp-lab-class-2024/Week12-IntroAIMD/runs_proton
 # Program compiled at                              Sat Dec 12 18:27:15 EST 2020
 # Program compiled on                                         cs001.nyu.cluster
 # Program compiled for                                                nyu-intel
 # Source code revision number                                       git:8c64c6e
 &GLOBAL
   PRINT_LEVEL  LOW
   PROJECT_NAME proton_aimd_1ns_every0.5fs
   RUN_TYPE  MD
   WALLTIME 21600
 &END GLOBAL
 &MOTION
   &GEO_OPT
     OPTIMIZER  BFGS
     MAX_ITER  100
     MAX_DR     3.0000000000000001E-03
     &BFGS
     &END BFGS
   &END GEO_OPT
   &MD
     ENSEMBLE  NVT
     STEPS  2000
     TIMESTEP     4.9999999999999994E-01
     STEP_START_VAL  500
     TIME_START_VAL     2.4999999999999795E+02
     ECONS_START_VAL    -1.1027144142478624E+03
     TEMPERATURE     3.0000000000000000E+02
     &THERMOSTAT
       TYPE  GLE
       REGION  MASSIVE
       &GLE
         NDIM  5
         A_SCALE     1.0000000000000000E+00
         A_LIST     1.8595758612559999E+02    2.7263853498399998E-01    1.1526100454610001E+01   -3.6414578262600003E+01 \
             2.3173375816020001E+02
         A_LIST    -2.7809524712060002E-01    8.5951591808710006E-05    7.2189048017650004E-01   -1.9844539343859999E-01 \
             4.2409257583420001E-01
         A_LIST    -1.4825808131210000E+01   -7.2189048017650004E-01    1.3590902121280000E+00    5.1498896280349999E+00 \
            -9.9949268450990001E+00
         A_LIST    -1.0372189126880000E+01    1.9844539343859999E-01   -5.1498896280349999E+00    2.6661910891169999E+01 \
             1.1507715495310000E+01
         A_LIST     2.1801346360420001E+02   -4.2409257583420001E-01    9.9949268450990001E+00   -1.1507715495310000E+01 \
             3.0958394565589998E+02
         &THERMOSTAT_ENERGY
              -2.3177364948950355E-03
              -1.1324376695829794E-03
              -1.8934716111637797E-04
               1.0402085105496710E-03
              -6.7526019521076406E-03
               8.0619637078472868E-04
              -2.8353861534987919E-03
              -3.2867388856974446E-03
               7.3859974472415789E-03
               2.7474880818528138E-03
               6.1993295572681456E-03
              -3.1221612121983297E-03
               2.3731569860018899E-03
              -1.5213468517878532E-03
              -8.7784618122702129E-04
              -3.1159039285940057E-03
               9.9977102626376351E-04
              -3.0189894521085465E-03
               4.4738364121012083E-03
               1.9745633031683529E-04
               1.0061964753970117E-03
              -2.9071860762381013E-04
              -2.9158893178563793E-03
               3.3960634036748860E-03
              -6.1522800739128658E-04
              -3.1006930697120012E-03
              -2.2567316757359950E-03
               6.9126790189931314E-03
               2.7273169072283696E-04
               5.8855498904633401E-04
              -3.5319856379099654E-03
               1.8372077442166028E-03
               5.1250001844890267E-03
               1.9355281198309282E-04
              -1.8099307438222449E-03
               5.1578419923170842E-03
              -1.3556999457738697E-03
               4.1124137884999203E-04
               9.9753747794962535E-04
              -5.3477323467367166E-03
               3.4442418668382529E-03
               3.3371692358442214E-05
               3.2681069647059564E-03
               2.0097145567064146E-03
              -7.2178334403026762E-03
               2.2071532837751734E-03
               3.9564893162817908E-04
               3.1666176611766400E-03
              -6.4225330231541524E-03
               2.3216527731777779E-03
               5.1530721999526745E-04
              -6.5966720933258033E-03
               1.9173115731687376E-03
               2.2932142584550460E-03
              -4.1010004026941537E-03
               4.2606141780924612E-03
              -4.6683920785954005E-04
              -1.6053419695208871E-03
               2.9521805125902320E-03
               4.2912839905153545E-03
              -2.7891879786441933E-03
               2.3974078401551384E-03
               6.8625945014843155E-03
               2.0611903250820924E-03
              -3.5824624892510908E-03
               1.4322186481013590E-05
              -3.6290113039213036E-03
               6.7158743926724613E-04
               6.8594885743118042E-03
               1.7827519635818345E-03
               6.4747182525215540E-04
              -2.3833594819427234E-03
              -3.0721090750895760E-03
               1.2693036970833366E-03
               9.8237452817746384E-04
              -4.1663475298583698E-03
               8.3281564900155002E-03
               4.1147197978770101E-04
               9.1347196948030132E-03
               4.2089888805706480E-06
              -5.6031515052717955E-03
              -2.8484404058897643E-03
               1.9873612646942422E-03
              -1.4367062573780970E-03
               2.5224805270316944E-03
               9.0662639624696667E-04
              -5.1611149766744241E-03
              -8.3188490275362573E-04
               2.2399852448532183E-03
              -3.3869957296939106E-03
               3.0500363184052040E-03
              -3.9504143726735146E-03
               1.7391086450051349E-03
              -9.8199557584655430E-04
              -9.3568436121795693E-03
               9.9035733405483974E-03
               3.5646135926625765E-03
               1.0319388796531017E-03
               2.4160440595746573E-03
               2.5712975235930909E-03
               1.2454564377173958E-03
              -1.2565350235033055E-03
              -4.1740473319563140E-04
               2.4098230432035857E-02
               5.7908053949885727E-03
               1.3924884764821358E-02
               1.3036866547400060E-02
               1.1356936596429624E-02
               4.4622989922645682E-03
              -2.2049231502611322E-03
               1.7868535109528607E-03
              -1.6859502438807137E-03
               2.5501341276413809E-03
               3.0254031907453356E-03
               1.1592061396535781E-03
               4.0445843217739291E-03
              -7.8247759761006785E-03
               1.0288566960252759E-03
              -3.2204450527322428E-03
               2.8386387635847941E-04
              -3.2631106782493296E-03
               3.4914268194321269E-03
               5.9037640958662027E-03
               8.8207380289486038E-03
              -5.5211298843766765E-03
              -4.6340925985919358E-03
              -8.4760551435769042E-04
              -3.3700372117866849E-04
               1.1305151961488917E-03
               2.9287500455657230E-03
              -5.7365162853684126E-03
               3.4620545816308806E-03
              -6.4324093531442639E-04
              -3.3032656168361678E-03
              -2.4943791944157970E-03
               1.6553161639406570E-03
              -2.6635827537945141E-03
               1.1757703529278595E-04
               4.2527198024681424E-04
              -6.3600988013782483E-03
               6.6187234547278257E-03
               4.0144265134824742E-03
               7.4872759635819094E-04
               1.8423147848097344E-03
              -4.7839349585028909E-03
              -1.1855953439208074E-03
               5.8569999440598163E-03
              -2.9898307769119213E-03
              -1.0061342257703958E-03
               1.1349989717576798E-02
              -5.5726931501784791E-03
              -5.2739984427553155E-04
               3.2191272634418573E-03
               6.9107022116991291E-05
               6.5072608660921645E-04
              -3.4423250523604311E-03
               7.6768340701034016E-04
              -4.3781258001885613E-03
              -2.5793250567062967E-03
               2.6389673691672791E-03
              -4.6985293506166094E-03
               7.9075597262557250E-04
              -3.9379047106841646E-04
              -7.5899827244827996E-04
               2.5674744035337916E-03
               7.7316075671990097E-03
               5.3732231107740929E-05
              -8.2838231390933315E-03
              -3.1830205417461206E-03
               2.1184553429310468E-03
               1.5090785429403091E-03
               4.2587886539961614E-03
               1.1825516562685571E-03
              -2.8887102200717534E-03
              -1.7464657476512667E-04
               2.9446276547148448E-03
               2.6995419500829721E-03
               5.6916673872324961E-05
              -2.5196356057146654E-04
               3.2203235748360327E-03
               6.5493912535404865E-04
               2.1194636583146405E-03
               1.6761996482419826E-03
              -1.0761985604947460E-02
               2.2755339110715630E-03
               4.0393625178331650E-04
              -4.1679531978066273E-03
               5.5080836702745819E-03
               1.6892197610709739E-03
               2.3698457106314835E-04
               2.5540216576962864E-03
              -2.1917519064018629E-03
               3.5301578846813307E-03
              -5.0513878211262968E-04
               7.1363080178394938E-04
              -4.8697668590187435E-03
               3.9718400212567146E-04
               3.3796556033669381E-03
              -4.9148337112092048E-04
               7.2102959904580882E-04
              -2.4341663891414727E-04
              -1.3075117812414204E-03
               4.6259059213625033E-03
              -4.4714755783562096E-05
              -3.7704724888033554E-03
               1.9287901273910076E-03
              -5.2594021730215171E-03
               1.2079323447503613E-04
              -1.5976960988894076E-04
               2.8177877959247241E-03
              -3.5066930766782938E-04
               3.1318819815273895E-04
               5.4519956874786221E-03
              -4.1822631621310224E-03
               4.9400759199200442E-03
              -8.4255453204350227E-04
              -2.8655184530461827E-03
               2.0102084222457161E-03
              -2.2321586973189896E-04
              -4.7129744950153256E-03
               1.3796247691034635E-03
              -3.4538651516104507E-03
              -1.1441400697747152E-03
               5.4720043626430301E-03
               2.1736229143103874E-03
               1.1643383910581596E-03
               8.2461442765672816E-04
               5.8341581474797731E-03
              -1.8925245202877090E-03
               5.6721483205312588E-03
              -9.6760262276008695E-03
               4.7578820660136830E-03
               1.6417156917831494E-03
              -1.7322354487102217E-03
               9.4047063085959406E-06
              -1.4914010296696431E-03
              -1.1471144910489277E-03
               2.4617050270222046E-03
              -4.6880914243064485E-04
              -5.9230812448128362E-04
               4.6776823520369272E-03
              -2.4873572703566181E-03
               4.0704757528187176E-03
               3.6690020796440489E-03
               9.6905957295941405E-05
               7.5369712305149196E-04
              -1.9278331746818448E-03
              -5.6182657039922262E-04
               1.0666780356645032E-03
              -4.8058313460759457E-03
               3.7748876559591006E-03
              -6.9728099668172412E-04
              -4.7636670252578402E-03
               4.8918100277659166E-04
              -1.8281440244472559E-03
              -7.1094608052453909E-03
               7.1093440092606930E-03
              -2.5550121030039666E-04
               2.0006846586154347E-03
              -7.0099301913554932E-03
               6.2107758594571972E-03
               6.0448878729751285E-03
               3.5612088082953922E-02
               8.2521706973647958E-03
               1.0698761334626535E-03
               2.7973186482328585E-03
               2.8387506004606848E-03
               2.5145081573056684E-03
              -5.4365729073409547E-03
               8.9463029802236815E-03
              -2.5487688311173445E-03
              -1.9742746773368245E-03
              -1.8155042302348863E-04
              -2.2419925324193286E-03
              -4.1028048644728247E-04
              -3.0649693303849961E-03
              -2.3977175959453288E-03
               5.3351262073282448E-03
               6.3132171002033988E-03
               3.6065572289054951E-03
              -1.4339827105816810E-03
              -6.0806629701956050E-03
              -6.7574125040296669E-04
              -6.8893627131880848E-04
               2.4523604937721055E-03
               3.9573939955857510E-03
               7.7003643200827137E-04
              -3.6468378147455531E-03
              -3.5435143733599781E-03
               1.2138019997556058E-03
               2.0476868509399231E-03
               3.5612350459256685E-03
               5.4178102037724272E-04
               1.1437900496476588E-03
              -6.8089401277057434E-04
               8.1373543204044350E-03
              -8.9059721675912151E-03
               3.0786411171176381E-03
               1.1423289264389030E-03
              -2.3502961001465252E-03
               1.6144076451241858E-03
               1.0208930929311334E-03
               1.0255468682938669E-03
               7.0386881345865958E-03
              -1.7783580720068205E-03
              -1.1349418440359746E-03
              -3.1350017270077571E-03
               2.5504552278209467E-03
              -1.6664317914397988E-03
               2.4822971272948132E-04
              -1.2686168931492297E-03
              -2.2803710806026428E-03
               2.4070541450696352E-03
               1.7873106014539143E-03
               6.4015923979576610E-05
              -2.9414454905228211E-03
              -2.8781553134762106E-03
               3.7508774683406498E-03
              -1.8354346789218553E-03
               1.8619545898504910E-03
               3.5331206024987634E-03
              -1.6899220189919566E-03
              -1.2154397253103264E-03
              -4.8019990379869499E-03
               1.9243547069051426E-03
               3.3906767424346880E-03
               5.2424228470849474E-03
              -3.8616754033668612E-04
               5.0090773210163759E-06
              -1.6207422215034147E-03
              -1.4601542600007748E-03
              -4.9015743366781505E-05
               1.5478941627270141E-03
               6.3512832285847025E-03
              -2.4245492112406845E-03
               1.2878854452345846E-03
               3.4027353167005148E-03
              -7.8661499684278284E-04
               1.0362345344813485E-03
               7.0620897010935319E-03
              -4.5795304759868576E-03
               1.5724718058854437E-04
               1.5166006132484886E-03
               1.4987937961579727E-03
              -1.4137713248550889E-03
               2.0495655981552382E-03
               8.2356964967863133E-04
              -1.4632369292519136E-03
               2.3206856288035399E-03
              -3.8767027253421397E-03
               6.5854866179790035E-04
               3.5578878735414948E-03
              -3.5534165075362710E-03
               4.2662485105297247E-03
               1.7996384412706070E-03
               2.2841153759762590E-03
              -5.0288773070953665E-04
               3.9788226065689087E-03
              -2.7791920588518147E-03
              -2.6989988110476173E-03
               2.3128905020406328E-03
              -2.5890776801860654E-03
               6.9803300160732884E-03
              -1.2969385221167602E-04
              -3.3508597293047970E-03
               4.9672029645083278E-03
               6.2308994670801990E-03
               3.3576499257717560E-03
              -1.0548852875622721E-02
               1.2034489267385604E-04
              -4.2644305723557970E-04
              -7.0315243561170021E-04
               1.2226153902085417E-03
              -1.4689779177634006E-03
              -1.3020910228662731E-03
               4.2380714593185731E-03
              -2.4835800643398702E-03
              -7.4465580859214720E-03
              -2.0785140184129535E-03
               2.8183863752446730E-03
               1.1776600316522432E-04
               7.4835388610263516E-04
               3.6510089579284933E-04
              -1.7965116931881759E-03
              -7.1232978432166621E-03
              -4.3503019086799663E-04
               4.2503430408340438E-03
               2.0211060241277133E-04
               2.6832470499596464E-03
               1.7371543900293620E-03
              -2.2552419347523581E-04
               3.2346236941524693E-03
               3.4107880720221076E-04
              -5.1793495832537992E-03
               1.0996288161848791E-03
               4.8366456530511553E-03
               1.4074251717046222E-03
               6.8320512855793783E-04
               7.1232382092638628E-04
              -2.6655906105501194E-03
              -2.3017867956441804E-03
               2.5719809428838766E-03
               5.8655122069819939E-03
               2.3459727777601844E-03
              -5.0811140533424219E-03
              -4.9393794069551764E-04
               2.5106958710392952E-03
              -7.1325133881555321E-03
               5.1294041465048705E-04
               2.0698284382815700E-03
               8.0396250614794623E-04
              -4.4311794302568606E-04
               1.6011696734184980E-03
              -3.6446488464455047E-03
              -2.5409434258732906E-03
               3.0786848028133895E-03
              -5.3361706808944661E-03
              -1.3682059764481276E-03
               3.4751756735742923E-03
               2.1122381475728222E-03
               6.2062300596295297E-03
              -1.5026503136051843E-03
              -1.4258507688782451E-03
              -9.7066571284840368E-04
              -1.5374127103401267E-03
               1.6638099427321363E-03
               3.2276624285000289E-03
              -5.4794319839491148E-03
               7.6032266830859826E-04
               6.2807393639989556E-03
              -1.1561595114920429E-03
              -2.9308438498528090E-03
              -4.8560459207771731E-03
              -1.0128213287625702E-03
               3.7630619330449866E-03
               3.8843213534293505E-03
               1.0918318025788951E-05
              -1.8622340039912600E-03
              -1.9049792396426269E-04
               1.2846769738432105E-03
               4.7439554154080901E-03
              -2.0700592682145209E-03
              -1.8602064161901818E-03
               1.6146274586289694E-03
               8.7710419177254063E-04
               7.2279643634480242E-03
               5.4855576749733414E-03
              -2.7112905535348311E-03
              -3.3603300795745448E-03
              -4.9230248721183014E-04
               7.8073959096506759E-04
              -8.7162673529359493E-03
               4.2512239448752476E-03
              -1.0257282645997649E-03
              -1.4579449870901387E-03
               2.1916130846900061E-04
               5.8759904903151372E-04
              -1.0723061231515921E-03
              -1.0875788583093343E-03
               2.3054133813297352E-03
               1.6886506883317400E-04
               7.1877910692605656E-04
              -2.4283619729791018E-03
               8.9688586357898918E-04
               5.4338581374407426E-03
               2.6978677353746774E-03
              -2.5491481173356939E-03
              -3.5620746975462041E-03
              -7.2766583957498175E-04
               3.4394589307168576E-03
              -3.9937562718579470E-03
              -6.9108564360188384E-04
               3.2771138468522753E-03
              -5.2843828253348639E-05
              -1.1681761632609792E-04
               6.4586972634091480E-03
              -2.1268739321406438E-03
               9.5931439621603921E-04
              -5.0233424425311698E-03
               9.8483606881249542E-04
              -1.0932491459820480E-03
              -4.5098917980573221E-04
               4.9254200367116665E-03
               1.7736630415051489E-03
               5.3885327679615387E-04
               3.0211174205757433E-03
              -3.6742339257423424E-03
              -3.9193678188148146E-03
               1.6750365902804014E-03
              -7.2248859224375954E-04
               1.0955963212839223E-03
               2.1221857691335767E-03
              -1.9458908818018809E-05
              -3.9349410428685516E-03
               2.4611492358593960E-03
              -5.4804339159829629E-03
               7.5703807177210100E-03
               4.9184641222706649E-03
               4.9011547845573544E-03
               3.1735425423642543E-03
              -1.3671094359136748E-03
              -9.0793094289894538E-04
              -1.0971528357047013E-02
               4.4156438323390470E-03
              -3.3670088900714947E-03
              -4.9030206785754876E-03
               3.6906878156467735E-04
              -1.9485271243614168E-03
               1.2955614996636936E-06
               5.0190148815947835E-04
               4.3156808564376375E-03
              -7.8619695302140313E-05
              -2.7469933911772049E-03
              -5.2347343837982115E-03
               1.2839761403270148E-03
               3.7699204067754349E-03
              -6.0327362129754519E-03
               4.6112531012080923E-03
               5.1134869902465779E-03
              -3.5414158566017839E-03
               1.8992818973661928E-04
              -2.0625352344428006E-03
              -3.0681247544483970E-04
              -2.7852032818777867E-03
              -1.1381587322977862E-03
              -2.1481116947380459E-04
              -4.7044517027744026E-04
               2.2207156365165416E-03
               3.9813893222532763E-03
               4.6517545267194312E-03
              -3.6614114647518297E-03
              -4.8745700352785292E-03
               1.7744333703022166E-03
              -3.8540725578159411E-03
               1.5298021943903522E-03
              -3.4361609440823512E-04
              -1.6235566587128827E-04
               2.8191041532670550E-04
               2.6484600621496878E-03
               3.9792498028518660E-04
               3.6086323148789564E-04
              -1.3909514760259761E-03
              -3.7236303783981734E-03
              -3.7105588412950346E-04
               1.1277262473362612E-03
               5.6059775900330522E-04
               2.0904934066042621E-03
              -1.2186426169439406E-03
               1.5024875454879834E-03
               8.7046237564746302E-04
              -6.3703846438666455E-03
               9.9953424276372151E-04
              -3.2977310711061460E-04
              -8.9605350437244762E-04
               4.3172406185004681E-04
              -5.0620491159356611E-03
               2.0982572388609122E-04
              -4.8656119614489533E-05
               6.7540530542091626E-03
               3.2134907542616240E-05
               4.9629084756297650E-03
              -3.1932745724510029E-04
              -1.2996710795023833E-03
               8.5788694505186433E-04
              -4.9986961809690071E-05
               6.9190278024819588E-03
              -8.2441639279957797E-03
              -3.7742351559200598E-03
               5.4024191134111107E-03
              -4.4509391616527694E-03
               3.2146352548425095E-03
              -4.0955368129601344E-03
              -3.6328963471039641E-03
              -4.7286106417085520E-03
               6.4278319153488980E-04
              -1.7504450486341048E-03
               3.3729730150555371E-03
               6.8363538140672961E-03
              -2.8939566512215832E-03
         &END THERMOSTAT_ENERGY
         &RNG_INIT
Wiener process for Thermostat # 1        1 F T T  -1.5505429657892764E+00         661802595.0        2026459976.0        3136775027.0        3268219721.0        1056216878.0        3744216088.0             12345.0             12345.0             12345.0             12345.0             12345.0             12345.0             12345.0             12345.0             12345.0             12345.0             12345.0             12345.0
Wiener process for Thermostat # 2        1 F T T   1.5766939834860993E-01        2521559082.0        1979391111.0        3972826820.0        2839528192.0        3960449033.0        3051881342.0        3692455944.0        1366884236.0        2968912127.0         335948734.0        4161675175.0         475798818.0        3692455944.0        1366884236.0        2968912127.0         335948734.0        4161675175.0         475798818.0
Wiener process for Thermostat # 3        1 F T T  -1.6802103653762466E+00        2464096834.0        3454226368.0         668358963.0        3607867155.0        2139338144.0        1695442074.0        1015873554.0        1310354410.0        2249465273.0         994084013.0        2912484720.0        3876682925.0        1015873554.0        1310354410.0        2249465273.0         994084013.0        2912484720.0        3876682925.0
Wiener process for Thermostat # 4        1 F T T  -9.2120442907176847E-01        3007810664.0         626544053.0           5688727.0        2019501767.0        4050809287.0        2188826537.0        2338701263.0        1119171942.0        2570676563.0         317077452.0        3194180850.0         618832124.0        2338701263.0        1119171942.0        2570676563.0         317077452.0        3194180850.0         618832124.0
Wiener process for Thermostat # 5        1 F T T   1.9586792436148486E+00        3119398129.0        2238966874.0        1731687009.0        1729823850.0        3912388439.0         182524877.0        1597262096.0        3906379055.0        3312112953.0        1016013135.0        4099474108.0         275305423.0        1597262096.0        3906379055.0        3312112953.0        1016013135.0        4099474108.0         275305423.0
Wiener process for Thermostat # 6        1 F T T  -2.2012851380256623E-01         527820745.0        2447393615.0         338698828.0         653439858.0         976211817.0        3944196308.0          97147054.0        3131372450.0         829345164.0        3691032523.0        3006063034.0        4259826321.0          97147054.0        3131372450.0         829345164.0        3691032523.0        3006063034.0        4259826321.0
Wiener process for Thermostat # 7        1 F T T  -1.2191095662093037E-02         167278661.0        2992638024.0        1197931920.0         124710794.0         889033703.0        2194094787.0         796079799.0        2105258207.0         955365076.0        2923159030.0        4116632677.0        3067683584.0         796079799.0        2105258207.0         955365076.0        2923159030.0        4116632677.0        3067683584.0
Wiener process for Thermostat # 8        1 F T T  -2.6373530393371375E-01        2923147749.0        3809475671.0         892364519.0        3114385888.0        3523415917.0        3402922821.0        3281794178.0        2616230133.0        1457051261.0        2762791137.0        2480527362.0        2282316169.0        3281794178.0        2616230133.0        1457051261.0        2762791137.0        2480527362.0        2282316169.0
Wiener process for Thermostat # 9        1 F T T  -1.2388913960989989E+00         276694386.0        3384434371.0        2194062143.0        3864498526.0        2498625561.0        4174179731.0        3777646647.0        1837464056.0        4204654757.0         664239048.0        4190510072.0        2959195122.0        3777646647.0        1837464056.0        4204654757.0         664239048.0        4190510072.0        2959195122.0
Wiener process for Thermostat # 10       1 F T T  -6.9271884074884071E-01         298842605.0        4183294382.0        3769908432.0        1623977651.0        3452521187.0         349927101.0        4215590817.0        3862461878.0        1087200967.0        1544910132.0         936383720.0        1611370123.0        4215590817.0        3862461878.0        1087200967.0        1544910132.0         936383720.0        1611370123.0
Wiener process for Thermostat # 11       1 F T T  -3.9199517781213300E-01        1183014876.0        2469777470.0        2706060047.0        1374668043.0         490283634.0         131761905.0        1683636369.0         362165168.0         814316280.0         869382050.0         980203903.0        2062101717.0        1683636369.0         362165168.0         814316280.0         869382050.0         980203903.0        2062101717.0
Wiener process for Thermostat # 12       1 F T T   1.2248374085476998E+00         744312290.0        1838623065.0        1895433531.0        2930723882.0        3034111406.0        1223209339.0         272317999.0         166758548.0         310112982.0         201045826.0        1680231254.0         118290799.0         272317999.0         166758548.0         310112982.0         201045826.0        1680231254.0         118290799.0
Wiener process for Thermostat # 13       1 F T T   1.6053528300026945E-02         341235087.0         365462780.0         607175623.0        3292057964.0        1611524565.0         256574977.0        2245755202.0        1652682525.0        2865544364.0         721509566.0         209733568.0         592362218.0        2245755202.0        1652682525.0        2865544364.0         721509566.0         209733568.0         592362218.0